 # Version information for this restart file 
 # current date 2025-03-29 15:22:08.967
 # current working dir /ccc/scratch/cont003/gen2309/sicilana/NPT/128_H2O_4_NaCl_10_wt_673K_1000bar/BATCH_10_MD_T_673_P_1000_steps_1000_dt_0.5_NH2O_128_NaCl_4_abc_17.19_17.19_17.19_wt_9.20
 # Program compiled at                                       2024-10-31 15:04:21
 # Program compiled on                                                 topaze131
 # Program compiled for                                                   x86_64
 # Source code revision number                                                  
 &GLOBAL
   PRINT_LEVEL LOW
   PROJECT_NAME "brines"
   RUN_TYPE MD
   FLUSH_SHOULD_FLUSH T
 &END GLOBAL
 &MOTION
   &MD
     ENSEMBLE NPT_I
     STEPS 1000
     TIMESTEP  4.9999999999999994E-001
     STEP_START_VAL 25100
     TIME_START_VAL  1.2550000000007205E+004
     ECONS_START_VAL -2.4590398713531335E+003
     TEMPERATURE  6.7300000000000011E+002
     &BAROSTAT
       PRESSURE  1.0000000000000000E+003
       TIMECON  9.9999999999999986E+001
       &VELOCITY
           1.9851996202256102E-006
       &END VELOCITY
       &MASS
           4.2836593343398705E+007
       &END MASS
       &THERMOSTAT
         TYPE CSVR
         &CSVR
           TIMECON  4.8377686530095694E+001
           &THERMOSTAT_ENERGY
              -2.8506106952233155E-004
           &END THERMOSTAT_ENERGY
           &RNG_INIT
 Wiener process for Thermostat # 1        1 F T F   5.6917224429906266E-01        1068342643.0        3994777129.0        1281001495.0        3405693631.0        1692322798.0        2889037412.0             12345.0             12345.0             12345.0             12345.0             12345.0             12345.0             12345.0             12345.0             12345.0             12345.0             12345.0             12345.0
           &END RNG_INIT
         &END CSVR
       &END THERMOSTAT
     &END BAROSTAT
     &THERMOSTAT
       TYPE CSVR
       &CSVR
         TIMECON  4.9999999999999994E+002
         &THERMOSTAT_ENERGY
            -8.0662175611519471E-001
         &END THERMOSTAT_ENERGY
         &RNG_INIT
 Wiener process for Thermostat # 1        1 F T F  -3.4087987009074078E-01         872703876.0         544872060.0        1436761022.0        1404620280.0        3355474454.0        2223475670.0             12345.0             12345.0             12345.0             12345.0             12345.0             12345.0             12345.0             12345.0             12345.0             12345.0             12345.0             12345.0
         &END RNG_INIT
       &END CSVR
     &END THERMOSTAT
     &AVERAGES T
       &RESTART_AVERAGES
         ITIMES_START 1
         AVECPU  2.2825428425578782E+001
         AVEHUGONIOT  0.0000000000000000E+000
         AVETEMP_BARO  3.0195614006684258E+002
         AVEPOT -2.4597037511065791E+003
         AVEKIN  1.2260637724570491E+000
         AVETEMP  6.6011910665674282E+002
         AVEKIN_QM  0.0000000000000000E+000
         AVETEMP_QM  0.0000000000000000E+000
         AVEVOL  3.8200350397488939E+004
         AVECELL_A  3.3607149676151110E+001
         AVECELL_B  3.3607149676151110E+001
         AVECELL_C  3.3607149676151110E+001
         AVEALPHA  9.0000000000000000E+001
         AVEBETA  9.0000000000000000E+001
         AVEGAMMA  9.0000000000000000E+001
         AVE_ECONS -1.1981896945506909E+002
         AVE_PRESS  3.6078023296648956E+002
         AVE_PXX  3.3050169320417359E+002
       &END RESTART_AVERAGES
     &END AVERAGES
   &END MD
   &PRINT
     &TRAJECTORY SILENT
       FILENAME =brines-1.xyz
       &EACH
         MD 1
       &END EACH
     &END TRAJECTORY
     &CELL SILENT
       FILENAME =brines-1.cell_xyz
       &EACH
         MD 1
       &END EACH
     &END CELL
     &VELOCITIES SILENT
       FILENAME =brines-1.vel
       &EACH
         MD 1
       &END EACH
     &END VELOCITIES
     &FORCES SILENT
       FILENAME =brines-1.force
       &EACH
         MD 1
       &END EACH
     &END FORCES
     &STRESS SILENT
       FILENAME =brines-1.stress
       &EACH
         MD 1
       &END EACH
     &END STRESS
     &RESTART SILENT
       FILENAME =brines-1.restart
       &EACH
         MD 1
       &END EACH
     &END RESTART
     &RESTART_HISTORY SILENT
       &EACH
         MD 50
       &END EACH
     &END RESTART_HISTORY
   &END PRINT
 &END MOTION
 &FORCE_EVAL
   METHOD QS
   STRESS_TENSOR ANALYTICAL
   &DFT
     BASIS_SET_FILE_NAME /ccc/work/cont003/gen2309/sicilana/DATA_CP2K/GTH_BASIS_SETS
     POTENTIAL_FILE_NAME /ccc/work/cont003/gen2309/sicilana/DATA_CP2K/GTH_POTENTIALS
     &SCF
       MAX_SCF 50
       EPS_SCF  9.9999999999999995E-008
       &OT T
         MINIMIZER DIIS
         PRECONDITIONER FULL_SINGLE_INVERSE
       &END OT
       &OUTER_SCF T
         EPS_SCF  9.9999999999999995E-008
         MAX_SCF 50
       &END OUTER_SCF
     &END SCF
     &QS
       EPS_DEFAULT  1.0000000000000000E-014
       EPSFIT  1.0000000000000000E-004
       EPSISO  9.9999999999999998E-013
       EPSRHO0  9.9999999999999995E-007
       QUADRATURE GC_LOG
       EXTRAPOLATION ASPC
       METHOD GAPW
     &END QS
     &MGRID
       NGRIDS 4
       CUTOFF  5.0000000000000000E+002
       REL_CUTOFF  6.0000000000000000E+001
     &END MGRID
     &XC
       DENSITY_CUTOFF  1.0000000000000000E-010
       GRADIENT_CUTOFF  1.0000000000000000E-010
       TAU_CUTOFF  1.0000000000000000E-010
       &XC_FUNCTIONAL NO_SHORTCUT
         &PBE T
           PARAMETRIZATION REVPBE
         &END PBE
       &END XC_FUNCTIONAL
       &VDW_POTENTIAL
         POTENTIAL_TYPE PAIR_POTENTIAL
         &PAIR_POTENTIAL
           TYPE DFTD3
           PARAMETER_FILE_NAME /ccc/work/cont003/gen2309/sicilana/DATA_CP2K/dftd3.dat
           REFERENCE_FUNCTIONAL "PBE"
           CALCULATE_C9_TERM T
           REFERENCE_C9_TERM T
           VERBOSE_OUTPUT T
           D3_EXCLUDE_KIND 3
         &END PAIR_POTENTIAL
       &END VDW_POTENTIAL
     &END XC
     &REAL_TIME_PROPAGATION
       INITIAL_WFN RT_RESTART
     &END REAL_TIME_PROPAGATION
     &PRINT
       &MO_CUBES SILENT
         WRITE_CUBE F
         NLUMO 10
         NHOMO 2
         &EACH
           MD 200
         &END EACH
       &END MO_CUBES
     &END PRINT
   &END DFT
   &SUBSYS
     &CELL
       A  1.8951726289672965E+001  0.0000000000000000E+000  0.0000000000000000E+000
       B  0.0000000000000000E+000  1.8951726289672965E+001  0.0000000000000000E+000
       C  0.0000000000000000E+000  0.0000000000000000E+000  1.8951726289672965E+001
       MULTIPLE_UNIT_CELL 1 1 1
     &END CELL
     &COORD
       H  8.7206393271633438E+000  2.4470911601254414E+001 -5.3315632885690045E-001
       H  8.6557907311568858E+000  2.3839080800094461E+001  7.7333420974675859E-001
       O  9.2249420686598782E+000  2.3847053528276810E+001  3.4589366927669229E-002
       H  9.0827211848151901E+000 -8.0269326636333673E+000  2.2041316846201093E+000
       H  8.8423791698944694E+000 -6.7385827050657952E+000  1.1922576514738477E+000
       O  8.9151206465888819E+000 -7.7514486422725479E+000  1.3094683689865239E+000
       H -1.2411662521731255E+001  4.8394354796259741E+001  4.6601510283465920E+001
       H -1.1006092007587583E+001  4.8854423678174840E+001  4.6087228709840261E+001
       O -1.1549795172960543E+001  4.8852218194571691E+001  4.6826974574841863E+001
       H  7.1678016189042566E+000  2.4717715011385632E+001  2.5252811230004024E+001
       H  7.7891960528000910E+000  2.3416480985879510E+001  2.4724967667993198E+001
       O  7.6897578954773094E+000  2.3997355870306667E+001  2.5526257376558778E+001
       H -8.6622507813269003E+000  6.5326929988127285E+000  5.5665288978658998E+000
       H -8.9535765738883910E+000  6.2698442143595647E+000  7.0766197548509489E+000
       O -8.6074409410510135E+000  6.9139339630178815E+000  6.3878201889953123E+000
       H  3.4561962152883801E+001  2.5424132992010804E+001 -7.5047835318842040E+000
       H  3.3289807525546685E+001  2.4574647297130454E+001 -7.5596632365150604E+000
       O  3.3594147733118220E+001  2.5480761551980546E+001 -7.5686669493277154E+000
       H -6.0859413450643540E+000  5.4626447262139193E+000  6.6828061527704117E+000
       H -6.7496549225472071E+000  4.8298775003128585E+000  7.8576890038213376E+000
       O -5.8347965466699474E+000  5.1299156323377373E+000  7.5299710244436122E+000
       H  2.5452412023819100E+001  4.8101539493667085E+000  2.2965049455829463E+000
       H  2.4459889913099268E+001  5.8838861707772825E+000  3.0657726547123612E+000
       O  2.4795067608488040E+001  5.4885943908903947E+000  2.2184452229313321E+000
       H  1.9855956474001704E+001  1.3413898741707630E+001  1.4164982413429257E+001
       H  2.1093357213321053E+001  1.3541185727948983E+001  1.5116734365885167E+001
       O  2.0210612189487247E+001  1.3811613691191551E+001  1.4977331459750847E+001
       H  2.2897534900129198E+001  5.4686785434800178E-001  2.1592149124655013E+001
       H  2.3683470936160496E+001  1.8700102741474114E-001  2.0353703541025418E+001
       O  2.2745396363715642E+001  4.3121687692165744E-001  2.0590000605027750E+001
       H  9.7088288405939434E+000 -4.0334617382511100E+000 -8.2122564051642470E+000
       H  1.0173472769576371E+001 -2.8097106943359402E+000 -7.4828240404971975E+000
       O  9.4822140672294299E+000 -3.0770990965058442E+000 -8.1526656291556829E+000
       H  1.1260112048625246E+001  3.5126383667535221E+000  1.8299424507171469E+001
       H  1.1759800796291238E+001  2.3285154444785601E+000  1.7520573366737299E+001
       O  1.1706199079655752E+001  2.6114136706023099E+000  1.8412257609458322E+001
       H  1.5614392686706632E+001  1.6982488080836450E+001  6.3780583565205751E+000
       H  1.6930728098462794E+001  1.6724351644856164E+001  5.7441839307705775E+000
       O  1.6011254701695986E+001  1.6363707877275289E+001  5.8348871657770571E+000
       H  4.1051759346226682E+000 -9.3430834533627056E+000 -4.0378512421240481E-001
       H  4.8439935761917958E+000 -1.0713391549504804E+001  4.0804626057012838E-001
       O  4.6281743383095852E+000 -1.0202386659007418E+001 -4.8362270281901532E-001
       H  3.1947178650222984E+001  3.2281834476879517E+001 -8.9212743598891897E-001
       H  3.1506529489349006E+001  3.2269219184764594E+001  6.0429213367758428E-001
       O  3.1221579756201812E+001  3.2161624733566917E+001 -3.1328833789214366E-001
       H  1.3304581166417615E+001  1.2067485405077618E+000 -6.5882325908380741E+000
       H  1.2816827454063933E+001  8.6015908380637995E-001 -7.8508779436229599E+000
       O  1.3485903283006412E+001  5.9274650411447394E-001 -7.2804682652455917E+000
       H  2.1953879950373590E+001  1.8947583253635312E+000  4.4573716614508543E+000
       H  2.3216149743158379E+001  2.0354219002307721E+000  5.3192470449942535E+000
       O  2.2844762542158321E+001  2.3071339492643848E+000  4.4802620916729632E+000
       H  8.1476136411382498E+000 -2.5034846619121698E+000  1.6964557362706213E+001
       H  6.5839678930552354E+000 -2.6800914956053976E+000  1.7040925326564839E+001
       O  7.3503567190735897E+000 -2.1149393153394271E+000  1.7305933896453976E+001
       H  4.0888409540257769E+000  1.6915668682139533E+001  8.7445374065516521E+000
       H  5.4536734062016778E+000  1.6135724187403184E+001  8.6075082207618525E+000
       O  4.7422020708004426E+000  1.6521065798883921E+001  8.1733745878884463E+000
       H  2.0910353815852240E+001  2.8901194420082618E+001  3.9182489699490177E+000
       H  1.9712903356012305E+001  2.7940174838936056E+001  3.4392759627007918E+000
       O  2.0546644278804315E+001  2.7979972970252707E+001  3.9470431562197552E+000
       H  1.5175175373049999E+001  7.5903098504318365E+000  2.1288710965536822E+001
       H  1.6158198729256988E+001  6.3585854319851487E+000  2.1703330121626070E+001
       O  1.6003264573402333E+001  7.3271244082181113E+000  2.1711453951638624E+001
       H  6.7846822290734012E+000 -1.2352331778273198E+001  1.6017543175128495E+001
       H  5.7763797128873984E+000 -1.2966638848410552E+001  1.7147477144692939E+001
       O  6.7183616916851223E+000 -1.2678302612306426E+001  1.6917349086788825E+001
       H  2.9398488592801300E+001  1.0178798610153008E+001  2.4179938548063877E+001
       H  2.9555473732964394E+001  1.0634099086597150E+001  2.2801535838681023E+001
       O  2.8971582859257389E+001  1.0869091558422758E+001  2.3546462236323535E+001
       H -1.4117328009336909E+001  8.3331491711507670E+000  1.1528072306155774E+001
       H -1.2590584888737704E+001  8.6248778110962476E+000  1.1133225064414457E+001
       O -1.3222153695738877E+001  8.1667306043112458E+000  1.1797743268779529E+001
       H  3.0061360350422617E+000  3.7576929099195304E+000  8.5443348671541841E+000
       H  1.8145624126960991E+000  4.0541855273214686E+000  9.4959199547129014E+000
       O  2.7150418138560735E+000  4.2942953042709453E+000  9.3203465629890374E+000
       H -9.9373049898834136E+000 -1.4996131522411048E+001  1.5731902603891642E+001
       H -1.1446427585578332E+001 -1.4770362300022542E+001  1.5734421167984253E+001
       O -1.0716086376473903E+001 -1.5082358472718097E+001  1.5174155431539816E+001
       H  2.5286012576452485E+001  9.6809910726852433E+000 -1.8917665098614345E+000
       H  2.6632103375212722E+001  1.0596028512763519E+001 -1.5138122726996210E+000
       O  2.5969938360420510E+001  1.0307331046503545E+001 -2.2738867619695289E+000
       H  1.2904633082668592E+001 -2.9038973911528170E+000  2.4074673781719092E+001
       H  1.2284801266109980E+001 -1.5909804932574210E+000  2.4588642197857929E+001
       O  1.3119511987619555E+001 -2.1149934435200310E+000  2.4677163508504524E+001
       H -7.9428568940554056E+000  1.1090094782770340E+001  1.2844938290871650E+000
       H -6.5131598592901332E+000  1.1085334907004714E+001  1.9492945766739918E+000
       O -7.4333184186524086E+000  1.0752880196071825E+001  2.0698171562118177E+000
       H  4.3492459472678924E+000  7.7237159957500641E+000  3.4170962546601085E+000
       H  3.1476723951839167E+000  8.5205545153137230E+000  3.4879655823508204E+000
       O  3.7707891972878866E+000  8.2434861407973301E+000  2.8213315270839208E+000
       H  1.0858741700211265E+000 -1.6656757376437508E+000  3.4809091528736298E+000
       H  1.1872608069035682E+000 -1.6066783938594436E+000  1.9063739161385214E+000
       O  1.4158160731117035E+000 -2.0828771924618783E+000  2.6999660549707634E+000
       H -4.5091479785816739E+000  2.2154722686804735E+001 -3.3295650162021264E+000
       H -4.1499517730296462E+000  2.1829907188880409E+001 -1.7900971477023835E+000
       O -4.4925628705360356E+000  2.1451586482002384E+001 -2.5603305792898876E+000
       H  2.0922439221054187E+001  2.8120991220811128E+001  8.9114881060242279E+000
       H  2.0225456601439657E+001  2.6776326276542665E+001  9.2457382405037176E+000
       O  2.0321932823247625E+001  2.7432866145641288E+001  8.5293009911760471E+000
       H  3.6157288278166164E+000 -1.5783505816956483E+001 -8.4104856649583173E+000
       H  2.6971488982415677E+000 -1.6999067495664001E+001 -8.2273751061608316E+000
       O  3.5600905859216909E+000 -1.6563427424113126E+001 -7.8345326541228877E+000
       H  9.7899106456035145E+000  5.0417352880522426E+000  9.3991589543767216E+000
       H  9.7239544793715673E+000  3.8463261034400715E+000  1.0296467953738709E+001
       O  1.0390442135947101E+001  4.4495160690942885E+000  9.9442305590652644E+000
       H  8.5009002917696659E+000  1.9748004343006290E+001 -1.9735175377728062E+001
       H  1.0030239005203912E+001  2.0107754246490963E+001 -1.8973433007893853E+001
       O  9.2275991234797381E+000  1.9510148323636663E+001 -1.9099287621121981E+001
       H  1.4167570671094717E+001 -4.4604261164622319E+000 -1.3541630737429877E+001
       H  1.5152134697241474E+001 -5.4981359174448876E+000 -1.3552853539793643E+001
       O  1.4195937897224265E+001 -5.3789944901939775E+000 -1.3321638638237713E+001
       H  1.2931474891999871E+001 -2.5782057903286346E+000  2.8509689571672055E+001
       H  1.3821457899146610E+001 -1.8881377870515406E+000  2.9528653539047088E+001
       O  1.3236080768041491E+001 -1.7009291373777484E+000  2.8750588494037302E+001
       H  2.1883846697374054E+001  5.6076690992162286E+000  1.6751111939535527E+001
       H  2.2061504451167774E+001  4.1274837824087331E+000  1.6333317563906789E+001
       O  2.2546013656689329E+001  4.9974698758804150E+000  1.6359079868220391E+001
       H  1.4615821364911133E+001  2.2507351517708422E+001  1.1580934446492879E+001
       H  1.4476220827600088E+001  2.2936269858580594E+001  1.3128313942707070E+001
       O  1.4027933603977274E+001  2.2475638987372729E+001  1.2346795373519733E+001
       H  3.1399473809291258E+000  5.0514703922859292E+000  5.0488147780957808E+000
       H  2.7656506478238181E+000  5.6991641919235008E+000  6.3393053606745902E+000
       O  3.5497521979677589E+000  5.4244413894274270E+000  5.7810544124466103E+000
       H  1.7600368807700068E+001  2.1573300551742307E+001 -7.8873006562806474E+000
       H  1.7754157167060171E+001  2.1658286705099531E+001 -6.4155014088994351E+000
       O  1.7487370648515146E+001  2.2205685880982656E+001 -7.1591904427949400E+000
       H  3.3751820247339346E+000  3.4972806727375563E+001  1.2733786114581601E+001
       H  4.5114285069337141E+000  3.5238774476025718E+001  1.3730686786941609E+001
       O  3.6200718522181323E+000  3.5568492301491119E+001  1.3494457512938176E+001
       H  9.2566323846897838E+000  1.1023516014268115E+000  1.3267730604039290E+001
       H  9.7145407232576648E+000  2.5183523110744135E+000  1.3657683021445061E+001
       O  1.0041010423992869E+001  1.5754658543463678E+000  1.3713238231659133E+001
       H  1.1613074796778067E+001  1.6032440113897760E+001 -1.8622812003425604E+001
       H  1.2010480138647671E+001  1.7232586564471426E+001 -1.7674880817796328E+001
       O  1.1923209453193962E+001  1.6235800228395060E+001 -1.7734422355791313E+001
       H -8.4868943613465824E+000  1.2547430343716737E+001  4.9812045204298618E+000
       H -8.4455093532052761E+000  1.3632223986936848E+001  6.1583221730483109E+000
       O -8.6719588303226605E+000  1.3536519494383702E+001  5.2238403867535528E+000
       H  7.0119388065657455E+000  3.4030210125805112E+001  1.3702819384198264E+001
       H  7.3933935860030910E+000  3.5533870981815014E+001  1.3869682731992320E+001
       O  6.7566824032311237E+000  3.4885385541816653E+001  1.4165348318823389E+001
       H  6.2923467087676466E+000  6.9623653958505463E+000  1.3571725258301953E+001
       H  7.3494605370998869E+000  6.0510837523342422E+000  1.4071117124159166E+001
       O  7.0664717426063133E+000  7.0343078701571882E+000  1.4107108902715817E+001
       H -3.0457129778710884E-001  1.8988705242141378E+001  2.5019909356008868E-001
       H -1.1454150676525410E+000  2.0065706936152569E+001  1.2745149950256822E+000
       O -5.2727380264318624E-001  1.9355059110515661E+001  1.1528574882225027E+000
       H -5.1077736643585077E+000  1.7497344427323373E+001  2.2134464472244400E+001
       H -4.4134023819764625E+000  1.8685408795964442E+001  2.2162770297247366E+001
       O -4.8284911809056563E+000  1.8228645840946228E+001  2.1529453601148020E+001
       H  1.9180522301132054E+001 -5.1028653723345596E-001  6.3228065868412218E+000
       H  1.9558642998411276E+001 -1.4143902546693161E+000  7.4839188306464965E+000
       O  1.8991061432069166E+001 -1.4249338508892389E+000  6.5917181079352947E+000
       H -3.0993797211454201E+001  7.2508523458651322E+000  2.3804899433090974E+001
       H -3.2404420432423784E+001  6.7294466497426866E+000  2.4217292787957518E+001
       O -3.1868076291253328E+001  7.0028214537675550E+000  2.3504005562476816E+001
       H  1.1935374075846287E+001  8.4703337326799826E+000  1.2830208116565409E+001
       H  1.0903944526002057E+001  8.6303669570209038E+000  1.3879208544286985E+001
       O  1.1819457160109279E+001  8.3424318450949269E+000  1.3827227097121606E+001
       H  1.7463346942585236E+001 -1.6592172549558612E+001  2.6001517818315275E+001
       H  1.6378235186870622E+001 -1.6442559502381012E+001  2.7160480660117432E+001
       O  1.7123314034535738E+001 -1.7055773069897850E+001  2.6825122797894380E+001
       H -8.3188372894677287E-001  1.8045081015581790E+001 -6.0460874251015344E+000
       H -1.2859237574649951E-001  1.6758115599068752E+001 -5.5904063949218727E+000
       O -4.5285932827314318E-001  1.7201154990544094E+001 -6.4363948724176181E+000
       H  1.7152526378087796E+001  1.1984667397602726E+001  1.7446971991794637E+001
       H  1.5670469429447085E+001  1.1757047137224950E+001  1.7258907626637619E+001
       O  1.6528973396485728E+001  1.1544380418580079E+001  1.6754766667290212E+001
       H  2.9087779495365229E+000  1.0333027349835595E+001  2.5640591142400172E+001
       H  3.1172504405505150E+000  1.1744664687111941E+001  2.5842344846331091E+001
       O  3.1835293227410233E+000  1.1025439576173390E+001  2.5168562263055019E+001
       H  1.5267282403805784E+000 -7.6861071234834784E+000 -3.2110493823559918E+000
       H  1.2888176278344288E+000 -6.4605270337512071E+000 -2.4665165263321271E+000
       O  1.3789157616695369E+000 -7.4519365312652672E+000 -2.2445502963371915E+000
       H  3.2015341433390860E+000  7.3903289617921075E+000  1.5248895514955567E+001
       H  3.3297414727832702E+000  8.5128690043865891E+000  1.6228094661457561E+001
       O  3.5390623027828867E+000  8.3206769439885999E+000  1.5284277037046250E+001
       H  8.0389972108072492E+000  2.5078695639342079E+001  3.0794455615832089E+001
       H  8.7168893156538232E+000  2.3845975820771148E+001  3.1465259818959971E+001
       O  7.8560451610615862E+000  2.4244747254247262E+001  3.1182801384308259E+001
       H  9.2494329536451705E+000  3.3395874117045693E+001 -8.0532923783521959E-001
       H  1.0027045142928609E+001  3.2153891969327894E+001 -1.1652367008225673E+000
       O  9.1036207511357379E+000  3.2490780110065494E+001 -1.0873313352939649E+000
       H  1.1531901058346989E+000  1.0820817428219401E+001  1.3435351213266539E+001
       H  2.2243311278342648E+000  9.8230677864051810E+000  1.3864805256265919E+001
       O  1.9643089528743836E+000  1.0812220865790804E+001  1.4022662185115589E+001
       H  1.5500657457446781E+001  1.1017219361828104E+001 -1.6837809864446196E+001
       H  1.5497171600559454E+001  1.0849288278257829E+001 -1.8476000373189965E+001
       O  1.4974665599526018E+001  1.0659724973179042E+001 -1.7664316590364653E+001
       H  1.1085677651849453E+001 -2.5520315114601555E+000  1.6209069101838207E+001
       H  1.1781796203432155E+001 -3.5595641330038403E+000  1.7188313583424108E+001
       O  1.1404100492144924E+001 -2.6937953607054910E+000  1.7156166053121247E+001
       H  1.4060998645240137E+001  4.0545546509006183E+000  2.1033450950002461E+001
       H  1.2800440213026890E+001  4.6627129388695518E+000  2.0544190298818915E+001
       O  1.3558231210071524E+001  4.7722018432087427E+000  2.1158096041808367E+001
       H  2.9065861748265320E+001 -1.8037010020546960E+000  2.2404005847146671E+001
       H  2.8297583305375703E+001 -5.7136004550627650E-001  2.3112285393799297E+001
       O  2.9151801403677378E+001 -1.0107494222658673E+000  2.2984960810731547E+001
       H  1.7078614887013934E+001  1.5566543407264591E+001  1.5991700891292011E+001
       H  1.7609189102309713E+001  1.4129055646905076E+001  1.5811417139171338E+001
       O  1.6809820671091426E+001  1.4660986559542732E+001  1.5600029606324775E+001
       H  1.1068165747203173E+001  5.4817322155367290E+000 -5.0912560938480480E+000
       H  1.1181509297093134E+001  5.2402995646916501E+000 -6.5894261963773157E+000
       O  1.0877941790878962E+001  4.8428940358935231E+000 -5.7994337435334931E+000
       H -1.4321977359538316E+000  1.0426306265548924E+001 -4.4090932116744677E+000
       H -1.6073785390789974E+000  1.1778669226544331E+001 -5.0476037707278234E+000
       O -1.4132163072300452E+000  1.0899903146034690E+001 -5.2884742291534215E+000
       H  9.7324554864535546E+000  8.1900869773223537E+000  9.9966548329933502E+000
       H  8.6066070174756870E+000  7.6957259384319148E+000  9.1163189239294944E+000
       O  9.0521732898928402E+000  7.4665308931067917E+000  9.9217297295831575E+000
       H -1.3283373129599237E+001 -2.1870282459044539E+000  4.4199674510149753E+000
       H -1.3943001941685504E+001 -1.1799136297001902E+000  3.7059309862149892E+000
       O -1.3898182023433987E+001 -2.1511272512837478E+000  3.6118310046189843E+000
       H  5.9562066964643845E-001  8.4990098560079055E+000 -7.2146178044812510E+000
       H  1.2293421925544434E+000  7.3852884984405458E+000 -6.4853399591423031E+000
       O  1.4195702951401226E+000  8.2177866708321474E+000 -6.9647169789383199E+000
       H  1.4220270434220284E+001  9.2038867845025081E+000  6.4638779460418458E+000
       H  1.4869669297514399E+001  1.0438077070232650E+001  7.2039000321222355E+000
       O  1.4816121488899659E+001  9.4513211139302289E+000  7.1314426280577559E+000
       H  2.9530119468373917E+000  1.1382756785371932E+001  1.7938403537399439E+000
       H  4.1249761275219674E+000  1.0275096405551318E+001  1.9489897389716564E+000
       O  3.9894042315067835E+000  1.1281247133388723E+001  1.7356748031839904E+000
       H  1.2984988390311093E+001  1.3819037056079519E+001 -6.8535640048107922E+000
       H  1.3970755773105465E+001  1.4208467898474945E+001 -5.6681845473036638E+000
       O  1.3894118427279604E+001  1.3627942632219684E+001 -6.4098428978346860E+000
       H  1.4112979677608584E+001  1.9240751391699447E+001  1.5027441347023577E+001
       H  1.3422896086817753E+001  2.0351181734459193E+001  1.5733777259216902E+001
       O  1.3252320229965493E+001  1.9449002078760365E+001  1.5422751713517007E+001
       H  5.3277225532409700E+000 -6.4829152438401927E+000 -1.2025973461044535E+001
       H  6.3575828410625306E+000 -5.2941900869941181E+000 -1.1825478425846304E+001
       O  5.9670272946656704E+000 -6.0802379722087956E+000 -1.1368929313404287E+001
       H  8.1005155335015999E+000  8.5983640074645571E+000  3.1030605357051368E+000
       H  8.6030560302864370E+000  7.3246873892802773E+000  2.3180616391381959E+000
       O  8.4908435535284301E+000  7.6858852133081816E+000  3.1915627524979193E+000
       H  1.0704397314313660E+001  1.0965051381722484E+001  9.3304857584685514E+000
       H  1.1783611222917949E+001  1.1268493422698326E+001  1.0228787332003263E+001
       O  1.1200079132221342E+001  1.0506231276511970E+001  1.0022444263630007E+001
       H  8.6344460540303503E-001  3.1614584308660937E-001 -9.6675659545871966E+000
       H -4.4767039643509970E-001  1.3671214049583347E+000 -9.9054720886828012E+000
       O  2.0053110729345439E-001  9.1881919120069466E-001 -9.2263630430005126E+000
       H  2.6811214578571398E+000  1.4972374044468342E+001  4.7221644113567436E+000
       H  3.9695965342762842E+000  1.4222321468837889E+001  5.0189743878187851E+000
       O  3.1435363043345723E+000  1.4554466882268962E+001  5.4692859888812082E+000
       H -8.0291762552905936E+000 -5.0364293940800211E+000  1.5089201109534374E+001
       H -7.2140717349004877E+000 -6.0289522592329687E+000  1.5780092225019876E+001
       O -7.1195256207664084E+000 -5.3549095590685436E+000  1.5126084644287642E+001
       H  1.6909321882584653E+001  3.7221135043526959E-001  1.4279509810037908E+001
       H  1.5966853860185486E+001  5.4539988076048662E-001  1.2993223854946509E+001
       O  1.6417295008890974E+001  1.0297988655346406E+000  1.3687147453310754E+001
       H  1.7944804498751751E+001 -5.7460708679161643E+000  2.9966132335525042E+001
       H  1.6354179512630314E+001 -5.4647271966092186E+000  3.0082261208639107E+001
       O  1.7232738401311959E+001 -5.2971201427375822E+000  2.9616049671098391E+001
       H  1.9496987295241166E+001  8.5243344675109700E-001  2.1777061497962148E+001
       H  1.8524810240383449E+001  1.4086175219876345E+000  2.2810910393200516E+001
       O  1.9464008461299318E+001  1.5567240546832286E+000  2.2464523390391260E+001
       H  9.6299047962024051E+000 -2.2037716599093915E-001 -4.2176901122956822E+000
       H  1.1150901063000065E+001 -2.0679754490794808E-001 -3.6299300696361527E+000
       O  1.0271612646332542E+001 -7.6386127083328648E-001 -3.6491094992934743E+000
       H  8.1306748538222067E+000 -5.5899448789674535E+000 -2.9126743050572785E+000
       H  7.9000410545538902E+000 -6.0948028478854699E+000 -4.3288200994507893E+000
       O  8.6429027099813958E+000 -5.9037369517798854E+000 -3.6718061946815483E+000
       H  3.4325555899753944E+001  1.7981821233898653E+001  1.6666385589297168E+001
       H  3.2727892774357962E+001  1.7851492912185645E+001  1.7186433936660361E+001
       O  3.3648877653911498E+001  1.7386212984185068E+001  1.7085157995111615E+001
       H  1.8857858946779736E+001  1.0446380171390839E+001  8.9042646402945813E+000
       H  1.7599691466622520E+001  1.1120740791350805E+001  8.5987917140696162E+000
       O  1.7876194520087143E+001  1.0322332976192833E+001  9.0695681548811411E+000
       H  7.6857723653480683E+000 -5.5040340663591492E+000  1.0405725739184941E+001
       H  7.9051160939647858E+000 -6.8153767463334409E+000  9.9184391400727545E+000
       O  8.3044728931082563E+000 -6.2363879972494667E+000  1.0589850378591368E+001
       H -2.0388214636473315E-001  4.1591987579210352E+000  7.0459379148321677E+000
       H -1.0502329897234944E-001  3.8813180231244715E+000  5.5126364520955251E+000
       O  2.2916245790721615E-001  3.5834786090156623E+000  6.3710247255995416E+000
       H  1.5213486563478577E+001 -1.2676677734720181E+001 -3.3664851241300222E+000
       H  1.3744356238325766E+001 -1.2255537373422046E+001 -3.9452096678412656E+000
       O  1.4386987606718005E+001 -1.3091490579180325E+001 -3.7876250496014361E+000
       H  2.2710445115714460E+001 -1.7987239449661827E+000 -6.8670563517081684E-001
       H  2.1180957064155219E+001 -2.0694451105191671E+000 -8.7387789229765889E-001