 # Version information for this restart file 
 # current date 2025-03-29 17:07:07.854
 # current working dir /ccc/scratch/cont003/gen2309/sicilana/NPT/128_H2O_4_NaCl_10_wt_673K_1000bar/BATCH_10_MD_T_673_P_1000_steps_1000_dt_0.5_NH2O_128_NaCl_4_abc_17.19_17.19_17.19_wt_9.20
 # Program compiled at                                       2024-10-31 15:04:21
 # Program compiled on                                                 topaze131
 # Program compiled for                                                   x86_64
 # Source code revision number                                                  
 &GLOBAL
   PRINT_LEVEL LOW
   PROJECT_NAME "brines"
   RUN_TYPE MD
   FLUSH_SHOULD_FLUSH T
 &END GLOBAL
 &MOTION
   &MD
     ENSEMBLE NPT_I
     STEPS 1000
     TIMESTEP  4.9999999999999994E-001
     STEP_START_VAL 25350
     TIME_START_VAL  1.2675000000007363E+004
     ECONS_START_VAL -2.4590398713531335E+003
     TEMPERATURE  6.7300000000000011E+002
     &BAROSTAT
       PRESSURE  1.0000000000000000E+003
       TIMECON  9.9999999999999986E+001
       &VELOCITY
          -3.7576198571963373E-006
       &END VELOCITY
       &MASS
           4.2836593343398705E+007
       &END MASS
       &THERMOSTAT
         TYPE CSVR
         &CSVR
           TIMECON  4.8377686530095694E+001
           &THERMOSTAT_ENERGY
              -1.5522654341040465E-004
           &END THERMOSTAT_ENERGY
           &RNG_INIT
 Wiener process for Thermostat # 1        1 F T F   4.2490858297953715E-01        3401744149.0        2217765283.0         366262217.0        3027307569.0        2454232526.0        2185328659.0             12345.0             12345.0             12345.0             12345.0             12345.0             12345.0             12345.0             12345.0             12345.0             12345.0             12345.0             12345.0
           &END RNG_INIT
         &END CSVR
       &END THERMOSTAT
     &END BAROSTAT
     &THERMOSTAT
       TYPE CSVR
       &CSVR
         TIMECON  4.9999999999999994E+002
         &THERMOSTAT_ENERGY
            -7.8697679003884802E-001
         &END THERMOSTAT_ENERGY
         &RNG_INIT
 Wiener process for Thermostat # 1        1 F T F   6.8797891895548946E-01        3728201734.0        3748910990.0        4117011745.0        1434364147.0         813169716.0         929456508.0             12345.0             12345.0             12345.0             12345.0             12345.0             12345.0             12345.0             12345.0             12345.0             12345.0             12345.0             12345.0
         &END RNG_INIT
       &END CSVR
     &END THERMOSTAT
     &AVERAGES T
       &RESTART_AVERAGES
         ITIMES_START 1
         AVECPU  2.2848802389321495E+001
         AVEHUGONIOT  0.0000000000000000E+000
         AVETEMP_BARO  3.0008768502802002E+002
         AVEPOT -2.4597068034665754E+003
         AVEKIN  1.2255007718994779E+000
         AVETEMP  6.5981598423076434E+002
         AVEKIN_QM  0.0000000000000000E+000
         AVETEMP_QM  0.0000000000000000E+000
         AVEVOL  3.8276028697943562E+004
         AVECELL_A  3.3628752629243031E+001
         AVECELL_B  3.3628752629243031E+001
         AVECELL_C  3.3628752629243031E+001
         AVEALPHA  9.0000000000000000E+001
         AVEBETA  9.0000000000000000E+001
         AVEGAMMA  9.0000000000000000E+001
         AVE_ECONS -1.2220853675781318E+002
         AVE_PRESS  3.6735537046286680E+002
         AVE_PXX  3.3280086850050310E+002
       &END RESTART_AVERAGES
     &END AVERAGES
   &END MD
   &PRINT
     &TRAJECTORY SILENT
       FILENAME =brines-1.xyz
       &EACH
         MD 1
       &END EACH
     &END TRAJECTORY
     &CELL SILENT
       FILENAME =brines-1.cell_xyz
       &EACH
         MD 1
       &END EACH
     &END CELL
     &VELOCITIES SILENT
       FILENAME =brines-1.vel
       &EACH
         MD 1
       &END EACH
     &END VELOCITIES
     &FORCES SILENT
       FILENAME =brines-1.force
       &EACH
         MD 1
       &END EACH
     &END FORCES
     &STRESS SILENT
       FILENAME =brines-1.stress
       &EACH
         MD 1
       &END EACH
     &END STRESS
     &RESTART SILENT
       FILENAME =brines-1.restart
       &EACH
         MD 1
       &END EACH
     &END RESTART
     &RESTART_HISTORY SILENT
       &EACH
         MD 50
       &END EACH
     &END RESTART_HISTORY
   &END PRINT
 &END MOTION
 &FORCE_EVAL
   METHOD QS
   STRESS_TENSOR ANALYTICAL
   &DFT
     BASIS_SET_FILE_NAME /ccc/work/cont003/gen2309/sicilana/DATA_CP2K/GTH_BASIS_SETS
     POTENTIAL_FILE_NAME /ccc/work/cont003/gen2309/sicilana/DATA_CP2K/GTH_POTENTIALS
     &SCF
       MAX_SCF 50
       EPS_SCF  9.9999999999999995E-008
       &OT T
         MINIMIZER DIIS
         PRECONDITIONER FULL_SINGLE_INVERSE
       &END OT
       &OUTER_SCF T
         EPS_SCF  9.9999999999999995E-008
         MAX_SCF 50
       &END OUTER_SCF
     &END SCF
     &QS
       EPS_DEFAULT  1.0000000000000000E-014
       EPSFIT  1.0000000000000000E-004
       EPSISO  9.9999999999999998E-013
       EPSRHO0  9.9999999999999995E-007
       QUADRATURE GC_LOG
       EXTRAPOLATION ASPC
       METHOD GAPW
     &END QS
     &MGRID
       NGRIDS 4
       CUTOFF  5.0000000000000000E+002
       REL_CUTOFF  6.0000000000000000E+001
     &END MGRID
     &XC
       DENSITY_CUTOFF  1.0000000000000000E-010
       GRADIENT_CUTOFF  1.0000000000000000E-010
       TAU_CUTOFF  1.0000000000000000E-010
       &XC_FUNCTIONAL NO_SHORTCUT
         &PBE T
           PARAMETRIZATION REVPBE
         &END PBE
       &END XC_FUNCTIONAL
       &VDW_POTENTIAL
         POTENTIAL_TYPE PAIR_POTENTIAL
         &PAIR_POTENTIAL
           TYPE DFTD3
           PARAMETER_FILE_NAME /ccc/work/cont003/gen2309/sicilana/DATA_CP2K/dftd3.dat
           REFERENCE_FUNCTIONAL "PBE"
           CALCULATE_C9_TERM T
           REFERENCE_C9_TERM T
           VERBOSE_OUTPUT T
           D3_EXCLUDE_KIND 3
         &END PAIR_POTENTIAL
       &END VDW_POTENTIAL
     &END XC
     &REAL_TIME_PROPAGATION
       INITIAL_WFN RT_RESTART
     &END REAL_TIME_PROPAGATION
     &PRINT
       &MO_CUBES SILENT
         WRITE_CUBE F
         NLUMO 10
         NHOMO 2
         &EACH
           MD 200
         &END EACH
       &END MO_CUBES
     &END PRINT
   &END DFT
   &SUBSYS
     &CELL
       A  1.8928421462073175E+001  0.0000000000000000E+000  0.0000000000000000E+000
       B  0.0000000000000000E+000  1.8928421462073175E+001  0.0000000000000000E+000
       C  0.0000000000000000E+000  0.0000000000000000E+000  1.8928421462073175E+001
       MULTIPLE_UNIT_CELL 1 1 1
     &END CELL
     &COORD
       H  9.3277253594933889E+000  2.3624000541693963E+001 -6.8026384916759908E-001
       H  8.4134562706634242E+000  2.3287741880108829E+001  6.4284274491610127E-001
       O  9.3210614179617455E+000  2.3420867929967393E+001  3.0124283562143178E-001
       H  9.3835534905561104E+000 -6.9394372800332187E+000  2.0453985361295164E+000
       H  9.1329689074456333E+000 -7.1387044833981435E+000  5.3170104743188240E-001
       O  8.7395809376646501E+000 -7.0902442742757188E+000  1.3809909999756942E+000
       H -1.0414032010908327E+001  4.7360826008008381E+001  4.7565685247546121E+001
       H -1.1170450828433763E+001  4.7519460352250981E+001  4.6230523950293950E+001
       O -1.0712232531653459E+001  4.8030628211298620E+001  4.6862044752905867E+001
       H  7.8230284550386147E+000  2.2811009709433932E+001  2.6307796214442003E+001
       H  8.9388041896465307E+000  2.3881613400762568E+001  2.6573797168547888E+001
       O  8.2329693583876136E+000  2.3574439760074288E+001  2.5875267151785437E+001
       H -8.4417864379205820E+000  6.5212398127429303E+000  5.8670488576027990E+000
       H -7.5395063243458180E+000  5.6758586303164673E+000  7.0056749966788914E+000
       O -8.2040104807240795E+000  6.4216268841646968E+000  6.7989735910518769E+000
       H  3.4372725764112332E+001  2.5530504746882851E+001 -7.2552634118170420E+000
       H  3.3712631525085705E+001  2.6505592056604726E+001 -6.2309177264802731E+000
       O  3.3466909083772364E+001  2.6028926506198683E+001 -7.1047123053006658E+000
       H -5.2927467617513857E+000  4.7133880694515238E+000  8.5862986958549481E+000
       H -6.7513853997961455E+000  4.5951930809088530E+000  8.9386102152621358E+000
       O -6.0770296047310746E+000  4.2882840223194467E+000  8.3121060874183801E+000
       H  2.5127098046837887E+001  5.3518035113684199E+000  1.6198932597687494E+000
       H  2.5154587390886167E+001  3.7709420466779968E+000  2.0138528771078135E+000
       O  2.5135154789961462E+001  4.4473582339975941E+000  1.3430331836874401E+000
       H  2.0816234115389385E+001  1.4288933127718307E+001  1.4843345520470811E+001
       H  2.0895964367121667E+001  1.2890488736510445E+001  1.3789735220649302E+001
       O  2.1060383316656885E+001  1.3885246973266591E+001  1.3912544089963308E+001
       H  2.2930108093734844E+001  6.3257306511887668E-001  2.0545705934795414E+001
       H  2.3749343622441661E+001 -7.0591058829583830E-001  2.0501784833906310E+001
       O  2.2846804739915932E+001 -3.7047651489127648E-001  2.0438696003096528E+001
       H  1.0355316729322226E+001 -2.6034050703435532E+000 -7.6666713292100077E+000
       H  8.8928194252967394E+000 -3.0503619631487791E+000 -7.6744301709553655E+000
       O  9.5386222656046353E+000 -2.4506648038013359E+000 -8.0715547850583338E+000
       H  1.2450515953821556E+001  1.9484375909438327E+000  1.9253790481049471E+001
       H  1.1296631928314548E+001  2.7879477211384853E+000  1.9805286664776144E+001
       O  1.2218668528410399E+001  2.8267733498248395E+000  1.9676739763949602E+001
       H  1.5702066017149994E+001  1.5738806092058736E+001  5.9862123874397382E+000
       H  1.6874341118984479E+001  1.6428832121131130E+001  5.3664445081033465E+000
       O  1.6176022220028610E+001  1.5797740569576579E+001  5.1701453768555883E+000
       H  4.6127437666634359E+000 -1.0691618315527766E+001  5.1491636132592367E-001
       H  4.4686623390292803E+000 -1.0125436244449531E+001 -8.6777618701600423E-001
       O  5.1339329272063310E+000 -1.0124085520275965E+001 -1.9171504102997852E-001
       H  3.0574297657555743E+001  3.3630571521308610E+001 -3.6872608019688963E-001
       H  3.0506107189764656E+001  3.2535300720667600E+001 -1.5294518987215424E+000
       O  3.0775948593210479E+001  3.2684014327635161E+001 -5.4738774651912203E-001
       H  1.4134058863190974E+001  7.8325849500049127E-001 -8.4157329992990224E+000
       H  1.3843836299483206E+001 -4.9059774308971899E-001 -8.8954761666292921E+000
       O  1.3399779067064573E+001  1.9032953573374714E-001 -8.3086886579443000E+000
       H  2.1011741752561758E+001  1.4411976893543341E+000  5.2102457728759921E+000
       H  2.2254598303276509E+001  1.8374709533348736E+000  4.3608092803198097E+000
       O  2.1951880393603130E+001  1.7731260030778546E+000  5.2669006135063885E+000
       H  7.2660013559449723E+000 -3.2902955911976566E+000  1.7736793520011378E+001
       H  7.6833008321695546E+000 -2.3705968711655157E+000  1.6639205531169726E+001
       O  7.7337846763077156E+000 -2.4522556854513820E+000  1.7597260335252511E+001
       H  4.2339465445997533E+000  1.7375714976905368E+001  7.9224307803159801E+000
       H  5.7246908988596878E+000  1.6811119771926673E+001  8.1931091719079241E+000
       O  4.8184842305055238E+000  1.6587790422748757E+001  8.0487100545116785E+000
       H  2.0313489303773608E+001  2.6536197200356227E+001  4.4319273667889849E+000
       H  2.0925166516559013E+001  2.7806048784081035E+001  3.5799682463675402E+000
       O  2.0576253331761290E+001  2.6850628456542243E+001  3.5003845571224836E+000
       H  1.5144856711903286E+001  7.3603017679860949E+000  2.1264990350225837E+001
       H  1.5791424710478767E+001  8.8627292090992089E+000  2.1281688148343513E+001
       O  1.6000147043103336E+001  7.8776748281081064E+000  2.1466903893468537E+001
       H  7.4151460442369741E+000 -1.2666800561140285E+001  1.6469234838946896E+001
       H  7.6436502457095923E+000 -1.2962965436435317E+001  1.8109540193994544E+001
       O  7.8696312846203957E+000 -1.3249451567058751E+001  1.7151132344352881E+001
       H  3.0062443287356675E+001  1.0834775324887380E+001  2.3908954396673849E+001
       H  3.0388397536854164E+001  1.2110141793322947E+001  2.3103001006566156E+001
       O  2.9603652177845188E+001  1.1575813232164029E+001  2.3495826600812919E+001
       H -1.5391866285832338E+001  7.9623277868940496E+000  1.2109301968631046E+001
       H -1.4518883848326267E+001  9.0336965333658465E+000  1.2630138125070882E+001
       O -1.4673159164717267E+001  8.0956149559591690E+000  1.2707050547921837E+001
       H  2.6500474745902456E+000  5.4299499708172654E+000  8.8788722377992961E+000
       H  2.1843878451581116E+000  4.2737077483877997E+000  7.9591689820194267E+000
       O  1.8157291369209245E+000  4.8600620084589430E+000  8.6636822876192401E+000
       H -1.0357612566355110E+001 -1.5428533653108115E+001  1.6331249209850565E+001
       H -9.6695334351068833E+000 -1.5287841258858997E+001  1.5060983641634841E+001
       O -9.7773765745815595E+000 -1.5979169220998296E+001  1.5757813364628717E+001
       H  2.5289336651130455E+001  9.7272645831304612E+000 -1.1452320984176456E+000
       H  2.5872980270390549E+001  1.1134665268347840E+001 -1.5073991318709741E+000
       O  2.5458743654248707E+001  1.0280855518487838E+001 -1.8811273500229393E+000
       H  1.2818948186825894E+001 -1.8971293482690457E+000  2.6083121520506001E+001
       H  1.3080955342697907E+001 -1.9722486396493997E+000  2.4567714704908049E+001
       O  1.2791218530172726E+001 -2.5267148466554175E+000  2.5296145878420678E+001
       H -7.2183408572641401E+000  1.0472534035956405E+001  2.0715063992613716E-001
       H -6.9590735911809842E+000  1.1735578864100599E+001  1.1071100853982363E+000
       O -6.9903935431345117E+000  1.0775813701791160E+001  1.1059131253186727E+000
       H  4.3257154609259425E+000  7.3644507139619391E+000  2.5884865770382466E+000
       H  3.0406457735810100E+000  7.9719914263534761E+000  2.5368010006256836E+000
       O  3.7642096839942303E+000  7.6978236710683907E+000  1.8740075825439129E+000
       H  4.2586798595460346E-001 -1.6420238964434122E+000  4.3310593983734638E+000
       H  8.5313337888155449E-001 -8.2670672421145897E-001  3.0610732892489061E+000
       O  1.0363387239076274E+000 -1.6700326140187003E+000  3.6425971688979355E+000
       H -3.3594742665116861E+000  2.1866858380779277E+001 -3.4794881368747501E+000
       H -3.5250278214487953E+000  2.1621645348724808E+001 -1.9228753176480160E+000
       O -3.9928652862769245E+000  2.1765427661221743E+001 -2.6892617139574102E+000
       H  2.1235028546816835E+001  2.7732569580196643E+001  8.7082302370201603E+000
       H  1.9988601754729867E+001  2.7562797090068749E+001  9.6999448807567816E+000
       O  2.0729576067167773E+001  2.7053542070926724E+001  9.3376759877225073E+000
       H  2.8342196493738960E+000 -1.6999813710859531E+001 -7.8487445588672138E+000
       H  2.0274188227949690E+000 -1.8161078384269956E+001 -7.0199744602525271E+000
       O  2.5726033312074921E+000 -1.7338739432005543E+001 -6.9884227519013651E+000
       H  1.0635140654137972E+001  5.0688565941950854E+000  1.0363288279590162E+001
       H  1.0269243706205662E+001  3.7499043135179484E+000  9.6427126540234998E+000
       O  1.0529430746568513E+001  4.6247774458568598E+000  9.4932535282103725E+000
       H  9.2421978572499999E+000  1.8843437312082088E+001 -1.8772504569501169E+001
       H  9.5904073461855734E+000  2.0413426417210943E+001 -1.9066209932017042E+001
       O  9.8769976138180322E+000  1.9542808529131957E+001 -1.8826010698505069E+001
       H  1.3788812981771477E+001 -5.5865388877418285E+000 -1.4304602659159707E+001
       H  1.4840026144975530E+001 -4.3208589222918183E+000 -1.4548753305672786E+001
       O  1.4720839226301040E+001 -5.3288745251508889E+000 -1.4541745084670689E+001
       H  1.2662048117469816E+001 -2.3263882697027798E+000  2.8874472228539780E+001
       H  1.4041421713488056E+001 -2.8035830291511799E+000  2.8957538054804136E+001
       O  1.3477095694296219E+001 -2.2797427956420955E+000  2.8370657780615545E+001
       H  2.2361829413278716E+001  3.8302908387536165E+000  1.5376779172660877E+001
       H  2.2689620768100582E+001  4.7842059413532541E+000  1.6627739364754259E+001
       O  2.1919165638509259E+001  4.2252084756686372E+000  1.6193503892482813E+001
       H  1.3492916319444735E+001  2.1782855966387949E+001  1.2035020358290145E+001
       H  1.3738324242021873E+001  2.3194584513168255E+001  1.1522853390624642E+001
       O  1.3315999212109503E+001  2.2695542554663145E+001  1.2256154723396412E+001
       H  2.8791933603751083E+000  4.0973877928959990E+000  5.3673695227616216E+000
       H  2.8619835775018148E+000  5.6267412757490058E+000  5.1925502199309479E+000
       O  3.5322180891358244E+000  4.8594458262528981E+000  5.1152949197124729E+000
       H  1.7089591286188952E+001  2.2072287162998354E+001 -7.8038567831602261E+000
       H  1.7290639005303870E+001  2.2062704183464977E+001 -6.2882763903137144E+000
       O  1.7670436334894998E+001  2.2441630943363620E+001 -7.1091115379118772E+000
       H  3.7418913809429539E+000  3.5171422806781614E+001  1.3975658736434525E+001
       H  4.8272182623053617E+000  3.6074161449398510E+001  1.3536663168723120E+001
       O  4.3678677135576374E+000  3.5724736603498272E+001  1.4393610013395236E+001
       H  1.1319089566297528E+001  2.1373216886273334E+000  1.3466270293773340E+001
       H  1.1028380731926173E+001  1.9426269750010636E+000  1.2051168948859965E+001
       O  1.0561782852449248E+001  1.9195874203029459E+000  1.2910213407672426E+001
       H  1.2077555796600667E+001  1.6837629542769974E+001 -1.8931929626480624E+001
       H  1.3319248449197104E+001  1.6631929725500811E+001 -1.8042430466889634E+001
       O  1.2357194136914353E+001  1.6906881025361255E+001 -1.7996778851558368E+001
       H -8.5403464648826954E+000  1.3268280517089112E+001  5.7514320666600032E+000
       H -7.7755631687125986E+000  1.4742266302384076E+001  5.8253423685762948E+000
       O -8.7256850332427085E+000  1.4267034309397722E+001  5.8335257609902875E+000
       H  8.3502444380714511E+000  3.3939352889853957E+001  1.4633104120997194E+001
       H  8.9004923585206992E+000  3.5323589490271750E+001  1.4599572675552167E+001
       O  8.0610064241804480E+000  3.4899180264934792E+001  1.4766352285492131E+001
       H  6.2404160350942224E+000  7.5118493096966379E+000  1.4313416765668256E+001
       H  7.0607143797183696E+000  6.2793700945641548E+000  1.4148978968052717E+001
       O  6.5862790027815770E+000  6.8157225217539796E+000  1.4831196689375377E+001
       H -2.0160137247073748E-001  1.9123707114592143E+001 -6.8082422730210848E-003
       H -1.6757383953836869E+000  1.9681097094413818E+001  5.7177145386417250E-001
       O -8.4884674182886444E-001  1.9266239627433148E+001  6.7368027741401026E-001
       H -3.7736796137477633E+000  1.7753227578341683E+001  2.2241576838948777E+001
       H -4.9717124004117128E+000  1.8554862391429438E+001  2.2778501738782598E+001
       O -4.7635941432387989E+000  1.7559090583191686E+001  2.2557428663265135E+001
       H  1.7875571243334502E+001 -2.5431545400827960E-001  5.9940535587310375E+000
       H  1.8789972517374498E+001 -1.5473172376628608E+000  6.4433983290624663E+000
       O  1.8148202543730662E+001 -1.2076748441257554E+000  5.7519798279170962E+000
       H -3.1274112633289114E+001  6.7012903207467600E+000  2.2925241899138516E+001
       H -3.2737307315579635E+001  6.6090593464940133E+000  2.3401161599659932E+001
       O -3.2171318460353220E+001  7.1431832797426686E+000  2.2889714994335137E+001
       H  1.1867178870512364E+001  8.2052333947819651E+000  1.3085193658456348E+001
       H  1.0581212892691015E+001  8.3874134808513343E+000  1.4003662226741811E+001
       O  1.0902316900959992E+001  7.9179151543856072E+000  1.3199850362257848E+001
       H  1.7901619186143556E+001 -1.7103753532946747E+001  2.5792799391860740E+001
       H  1.6671389168780195E+001 -1.7802236948851544E+001  2.6521038642476530E+001
       O  1.7577530299480635E+001 -1.7970916486391129E+001  2.6068637357962853E+001
       H -4.5220845418369909E-001  1.6062472305669324E+001 -5.2649426956826488E+000
       H -4.5429520665115741E-001  1.7570464994673269E+001 -5.6063166904163690E+000
       O -1.5542739217267668E-001  1.6708111427222473E+001 -5.9711057406926384E+000
       H  1.7995473279184772E+001  1.1209014743860552E+001  1.6702167845261183E+001
       H  1.6876420147140124E+001  1.0907384981163917E+001  1.5940988597733266E+001
       O  1.7726348916631341E+001  1.1179926073828343E+001  1.5758162450181770E+001
       H  3.9510332996647515E+000  1.0813806719513218E+001  2.6075083222682320E+001
       H  2.4135380384238441E+000  1.0634751286053460E+001  2.5843381448219393E+001
       O  3.2312793887451359E+000  1.0131675893137468E+001  2.5695414515712223E+001
       H  2.1489845138918149E+000 -6.6001350277842041E+000 -1.6186433092872841E+000
       H  1.9654274782627066E+000 -7.5184105983443006E+000 -6.3078453187803130E-001
       O  2.0779655534179615E+000 -7.5744941707975695E+000 -1.6122887247061151E+000
       H  2.8560761387546556E+000  8.0345591470889524E+000  1.5834279541873640E+001
       H  2.9436045023209241E+000  9.5940681196303199E+000  1.6106815771541779E+001
       O  3.2373428038106429E+000  8.6834280966111947E+000  1.6478523158998090E+001
       H  7.6805403936830956E+000  2.4229880834155569E+001  3.1287795836986213E+001
       H  8.8639650253581479E+000  2.3682827206661738E+001  3.1921102384857505E+001
       O  8.0580576411021561E+000  2.3405833532847623E+001  3.1483724808234999E+001
       H  8.8424351050980725E+000  3.2668033114581192E+001 -5.4860346481067612E-001
       H  1.0017461065678138E+001  3.2219265922284762E+001 -1.3634015356743863E+000
       O  9.0556783031296462E+000  3.2048874836106535E+001 -1.2514277006298717E+000
       H  1.4752411428024987E+000  1.0254813057168070E+001  1.2784694749325173E+001
       H  4.6502075984969449E-001  1.1319982364054496E+001  1.2976319479958939E+001
       O  1.3677033345727139E+000  1.1220575673117372E+001  1.3069121097288567E+001
       H  1.4684073950985450E+001  1.1567825114434783E+001 -1.7194115184519863E+001
       H  1.4193573286026860E+001  1.0554806969713736E+001 -1.8146271965098936E+001
       O  1.4905009741299612E+001  1.1153762168965658E+001 -1.8092450283927352E+001
       H  1.1943415187271466E+001 -1.3740167667822654E+000  1.6579786130360002E+001
       H  1.0651873066114899E+001 -2.1069102880995092E+000  1.6994009221895741E+001
       O  1.1597414586469174E+001 -2.2492853147840117E+000  1.6785919801389863E+001
       H  1.4522598617512898E+001  5.0035024837788482E+000  2.0763341923097471E+001
       H  1.3052550085078199E+001  5.7115497041983243E+000  2.0357715651266062E+001
       O  1.3914177687821125E+001  5.8012696431114561E+000  2.1010991856970964E+001
       H  2.9209952474377886E+001 -1.1334369029918947E+000  2.2105440446763410E+001
       H  2.9520525113077927E+001 -2.3340565611564540E-001  2.3392743900671565E+001
       O  2.9333540732183639E+001 -1.0824171269331584E+000  2.3069645487857862E+001
       H  1.8738316505683525E+001  1.6418775929044973E+001  1.6417412595981645E+001
       H  1.7932687748420978E+001  1.5135915327136294E+001  1.6704992023685577E+001
       O  1.8564701967656887E+001  1.5449878854408055E+001  1.6050085061550572E+001
       H  1.1086111682480121E+001  6.1037982138522411E+000 -5.6494463682430078E+000
       H  1.1373255194782910E+001  4.5673998194456749E+000 -5.7048294219273235E+000
       O  1.0821715177997222E+001  5.2411770761483707E+000 -6.0540093044354055E+000
       H -1.7571851463686883E+000  1.0863358892516944E+001 -5.5363512853415111E+000
       H -2.4347740063268746E+000  1.2088279791619101E+001 -4.9442477095556860E+000
       O -2.3387549529041660E+000  1.1659963265659341E+001 -5.7779911959780152E+000
       H  9.4207738089681907E+000  8.1464359295299502E+000  1.1048889763111205E+001
       H  9.0621296385561259E+000  7.3322444045311954E+000  9.8773886583738033E+000
       O  8.8295529542679692E+000  7.4109885427856588E+000  1.0792464934105780E+001
       H -1.4173452877000628E+001 -2.7593335897802334E+000  4.2512246538759557E+000
       H -1.5259249508822075E+001 -2.2918053026453618E+000  3.2304307871983826E+000
       O -1.4577252933059883E+001 -2.9882492852076235E+000  3.3612329803543961E+000
       H  1.6023242732807070E+000  8.2877458577409762E+000 -7.3688282174748609E+000
       H -7.5324903651091540E-002  8.3747547719377611E+000 -7.0381292220282212E+000
       O  8.8800246010288497E-001  8.4434745419830062E+000 -6.6913478978335075E+000
       H  1.3808330823992536E+001  9.6677439405217189E+000  7.1594819650987391E+000
       H  1.4654938412761492E+001  1.0438128097509605E+001  8.0613546264489564E+000
       O  1.4570001593653757E+001  9.5804643975120083E+000  7.7829566928802540E+000
       H  3.9881855595852320E+000  1.0775780779817334E+001  8.9639394499284597E-001
       H  3.4722062606463586E+000  1.1050527225352470E+001  2.2265835917987213E+000
       O  3.6597675176345277E+000  1.1451743201474260E+001  1.4084783658504403E+000
       H  1.2983830531073405E+001  1.3900060729926576E+001 -6.5775141300348787E+000
       H  1.3497379868470714E+001  1.4417550972998365E+001 -5.3731115717494395E+000
       O  1.3742210718565355E+001  1.4469674303804467E+001 -6.3528453900774737E+000
       H  1.3502062682554483E+001  1.8603114963699042E+001  1.3086901501783935E+001
       H  1.3507018405045477E+001  1.8792965975480055E+001  1.4518724303659901E+001
       O  1.2881476857761045E+001  1.8684748848089349E+001  1.3832800335079575E+001
       H  6.0331596946592052E+000 -4.7343985829059756E+000 -1.2422165305134563E+001
       H  5.7938059992338049E+000 -5.0760759593532656E+000 -1.0939652663473787E+001
       O  5.5559104599028579E+000 -5.3469737611466881E+000 -1.1819068411156842E+001
       H  9.0834358845587460E+000  9.2664635018135932E+000  3.2820985339847812E+000
       H  7.6938472073297062E+000  9.4447383060090111E+000  3.9475858291783759E+000
       O  8.3982224007855919E+000  8.7661442435373598E+000  3.8150742192899232E+000
       H  1.1166314194697081E+001  9.9780829620211353E+000  1.0804504509135416E+001
       H  1.1859932400039790E+001  8.7832828908820986E+000  1.0227535679492176E+001
       O  1.0906696629752478E+001  9.1747392453730647E+000  1.0334269829251415E+001
       H  2.6248021239049230E-001  4.9857463400429547E-001 -9.5679081247531652E+000
       H  3.7818694541148440E-001  1.3290072213430986E+000 -8.2033518137670995E+000
       O -1.0931792753605869E-001  6.0896795886240129E-001 -8.6261731715665437E+000
       H  1.9662359681318280E+000  1.4299842418715626E+001  5.4553205656110073E+000
       H  3.1878887488792187E+000  1.3616820431546561E+001  4.7061332034122181E+000
       O  2.9846015040989982E+000  1.4223053781143054E+001  5.4241697299659615E+000
       H -7.1246471587346045E+000 -6.0569858134580423E+000  1.5014115226851754E+001
       H -5.7349045434222754E+000 -5.4261581799199643E+000  1.5394434552794557E+001
       O -6.7305849565149858E+000 -5.1826352554329551E+000  1.5237195530653697E+001
       H  1.7681388485927613E+001  1.1547364945283312E+000  1.4743936146062799E+001
       H  1.8364483958106817E+001  1.4360184464041934E+000  1.3438137889218011E+001
       O  1.7475835541673934E+001  1.4361688045715675E+000  1.3829204921200734E+001
       H  1.6212891533444509E+001 -5.3101327037166319E+000  2.9947613193281533E+001
       H  1.5600424507161220E+001 -3.8930368656997740E+000  3.0413411478759464E+001
       O  1.6074875167878979E+001 -4.3817724839178105E+000  2.9666871721495120E+001
       H  1.8915935789686348E+001  1.2268703508455556E+000  2.1440285534110728E+001
       H  1.8732644633792198E+001  1.2394195691503520E+000  2.2988587676920222E+001
       O  1.9421946480829028E+001  1.4427862280284847E+000  2.2269469946327384E+001
       H  9.5700187190213164E+000  4.6568412323113101E-001 -3.7206194891360460E+000
       H  1.0803623287932014E+001 -2.9636738157144549E-001 -3.9903490124821102E+000
       O  1.0037790255323243E+001 -3.9924670815976243E-001 -3.4648330290810332E+000
       H  8.1430258185877591E+000 -5.8957477281130597E+000 -3.4244915011712562E+000
       H  7.6191354776399827E+000 -6.3391556562055333E+000 -4.7534103940504213E+000
       O  8.4587321033851470E+000 -5.9618084057876661E+000 -4.4160867711917611E+000
       H  3.5082736385187971E+001  1.6953163904762974E+001  1.6615486421660130E+001
       H  3.3543957211082677E+001  1.6648007419175478E+001  1.6896813423912199E+001
       O  3.4383046150649932E+001  1.6359892520776857E+001  1.6406969738453594E+001
       H  1.7662580141190908E+001  1.0514562617230737E+001  7.3125558989009090E+000
       H  1.7488599434771043E+001  1.1255969769987059E+001  8.6365160528182212E+000
       O  1.7966313835061264E+001  1.0487710976693654E+001  8.2838139114549811E+000
       H  8.8804997665092049E+000 -4.8652405584332117E+000  9.7285256156279178E+000
       H  8.6460289968347208E+000 -6.2464128959472651E+000  9.5224044542496014E+000
       O  9.1803548328251754E+000 -5.6916816317383025E+000  1.0185356455169915E+001
       H -3.4743532018443429E-001  4.2521515182765217E+000  5.7199228977034267E+000
       H -7.5614203859084672E-001  3.4492246400476514E+000  4.4200412095174633E+000
       O -8.4976071733525649E-001  3.4564938009352062E+000  5.3869112010942697E+000
       H  1.3406440906130767E+001 -1.2996329712890045E+001 -4.9299954941294999E+000
       H  1.3952449605991118E+001 -1.3827557684013760E+001 -3.8151089282784376E+000
       O  1.3791362502295653E+001 -1.2867963796725450E+001 -4.0313518679593523E+000
       H  2.1764546781801801E+001 -8.5136860984543516E-001 -1.6351049794498038E-001
       H  2.0827659286904982E+001 -2.1207614075993111E+000 -8.8794935730967972E-002