 # Version information for this restart file 
 # current date 2025-03-29 16:04:11.913
 # current working dir /ccc/scratch/cont003/gen2309/sicilana/NPT/128_H2O_4_NaCl_10_wt_673K_1000bar/BATCH_10_MD_T_673_P_1000_steps_1000_dt_0.5_NH2O_128_NaCl_4_abc_17.19_17.19_17.19_wt_9.20
 # Program compiled at                                       2024-10-31 15:04:21
 # Program compiled on                                                 topaze131
 # Program compiled for                                                   x86_64
 # Source code revision number                                                  
 &GLOBAL
   PRINT_LEVEL LOW
   PROJECT_NAME "brines"
   RUN_TYPE MD
   FLUSH_SHOULD_FLUSH T
 &END GLOBAL
 &MOTION
   &MD
     ENSEMBLE NPT_I
     STEPS 1000
     TIMESTEP  4.9999999999999994E-001
     STEP_START_VAL 25200
     TIME_START_VAL  1.2600000000007269E+004
     ECONS_START_VAL -2.4590398713531335E+003
     TEMPERATURE  6.7300000000000011E+002
     &BAROSTAT
       PRESSURE  1.0000000000000000E+003
       TIMECON  9.9999999999999986E+001
       &VELOCITY
          -3.3682757139116784E-006
       &END VELOCITY
       &MASS
           4.2836593343398705E+007
       &END MASS
       &THERMOSTAT
         TYPE CSVR
         &CSVR
           TIMECON  4.8377686530095694E+001
           &THERMOSTAT_ENERGY
              -6.1295261891065281E-004
           &END THERMOSTAT_ENERGY
           &RNG_INIT
 Wiener process for Thermostat # 1        1 F T F   6.6263384882795373E-02        1200073015.0         153949022.0        4152139593.0        1859119794.0        2159236327.0        4114104825.0             12345.0             12345.0             12345.0             12345.0             12345.0             12345.0             12345.0             12345.0             12345.0             12345.0             12345.0             12345.0
           &END RNG_INIT
         &END CSVR
       &END THERMOSTAT
     &END BAROSTAT
     &THERMOSTAT
       TYPE CSVR
       &CSVR
         TIMECON  4.9999999999999994E+002
         &THERMOSTAT_ENERGY
            -8.0882468415252839E-001
         &END THERMOSTAT_ENERGY
         &RNG_INIT
 Wiener process for Thermostat # 1        1 F T F  -7.7235567908706348E-01        3961869716.0         817543165.0        1493715991.0        3076727902.0        3932648809.0         453883036.0             12345.0             12345.0             12345.0             12345.0             12345.0             12345.0             12345.0             12345.0             12345.0             12345.0             12345.0             12345.0
         &END RNG_INIT
       &END CSVR
     &END THERMOSTAT
     &AVERAGES T
       &RESTART_AVERAGES
         ITIMES_START 1
         AVECPU  2.2834968134170371E+001
         AVEHUGONIOT  0.0000000000000000E+000
         AVETEMP_BARO  3.0108687748845074E+002
         AVEPOT -2.4597049593661627E+003
         AVEKIN  1.2258619038910792E+000
         AVETEMP  6.6001041957176153E+002
         AVEKIN_QM  0.0000000000000000E+000
         AVETEMP_QM  0.0000000000000000E+000
         AVEVOL  3.8231485412154805E+004
         AVECELL_A  3.3616020106883845E+001
         AVECELL_B  3.3616020106883845E+001
         AVECELL_C  3.3616020106883845E+001
         AVEALPHA  9.0000000000000000E+001
         AVEBETA  9.0000000000000000E+001
         AVEGAMMA  9.0000000000000000E+001
         AVE_ECONS -1.2078045151926921E+002
         AVE_PRESS  3.6306625157042231E+002
         AVE_PXX  3.2874054293295188E+002
       &END RESTART_AVERAGES
     &END AVERAGES
   &END MD
   &PRINT
     &TRAJECTORY SILENT
       FILENAME =brines-1.xyz
       &EACH
         MD 1
       &END EACH
     &END TRAJECTORY
     &CELL SILENT
       FILENAME =brines-1.cell_xyz
       &EACH
         MD 1
       &END EACH
     &END CELL
     &VELOCITIES SILENT
       FILENAME =brines-1.vel
       &EACH
         MD 1
       &END EACH
     &END VELOCITIES
     &FORCES SILENT
       FILENAME =brines-1.force
       &EACH
         MD 1
       &END EACH
     &END FORCES
     &STRESS SILENT
       FILENAME =brines-1.stress
       &EACH
         MD 1
       &END EACH
     &END STRESS
     &RESTART SILENT
       FILENAME =brines-1.restart
       &EACH
         MD 1
       &END EACH
     &END RESTART
     &RESTART_HISTORY SILENT
       &EACH
         MD 50
       &END EACH
     &END RESTART_HISTORY
   &END PRINT
 &END MOTION
 &FORCE_EVAL
   METHOD QS
   STRESS_TENSOR ANALYTICAL
   &DFT
     BASIS_SET_FILE_NAME /ccc/work/cont003/gen2309/sicilana/DATA_CP2K/GTH_BASIS_SETS
     POTENTIAL_FILE_NAME /ccc/work/cont003/gen2309/sicilana/DATA_CP2K/GTH_POTENTIALS
     &SCF
       MAX_SCF 50
       EPS_SCF  9.9999999999999995E-008
       &OT T
         MINIMIZER DIIS
         PRECONDITIONER FULL_SINGLE_INVERSE
       &END OT
       &OUTER_SCF T
         EPS_SCF  9.9999999999999995E-008
         MAX_SCF 50
       &END OUTER_SCF
     &END SCF
     &QS
       EPS_DEFAULT  1.0000000000000000E-014
       EPSFIT  1.0000000000000000E-004
       EPSISO  9.9999999999999998E-013
       EPSRHO0  9.9999999999999995E-007
       QUADRATURE GC_LOG
       EXTRAPOLATION ASPC
       METHOD GAPW
     &END QS
     &MGRID
       NGRIDS 4
       CUTOFF  5.0000000000000000E+002
       REL_CUTOFF  6.0000000000000000E+001
     &END MGRID
     &XC
       DENSITY_CUTOFF  1.0000000000000000E-010
       GRADIENT_CUTOFF  1.0000000000000000E-010
       TAU_CUTOFF  1.0000000000000000E-010
       &XC_FUNCTIONAL NO_SHORTCUT
         &PBE T
           PARAMETRIZATION REVPBE
         &END PBE
       &END XC_FUNCTIONAL
       &VDW_POTENTIAL
         POTENTIAL_TYPE PAIR_POTENTIAL
         &PAIR_POTENTIAL
           TYPE DFTD3
           PARAMETER_FILE_NAME /ccc/work/cont003/gen2309/sicilana/DATA_CP2K/dftd3.dat
           REFERENCE_FUNCTIONAL "PBE"
           CALCULATE_C9_TERM T
           REFERENCE_C9_TERM T
           VERBOSE_OUTPUT T
           D3_EXCLUDE_KIND 3
         &END PAIR_POTENTIAL
       &END VDW_POTENTIAL
     &END XC
     &REAL_TIME_PROPAGATION
       INITIAL_WFN RT_RESTART
     &END REAL_TIME_PROPAGATION
     &PRINT
       &MO_CUBES SILENT
         WRITE_CUBE F
         NLUMO 10
         NHOMO 2
         &EACH
           MD 200
         &END EACH
       &END MO_CUBES
     &END PRINT
   &END DFT
   &SUBSYS
     &CELL
       A  1.8933095910593792E+001  0.0000000000000000E+000  0.0000000000000000E+000
       B  0.0000000000000000E+000  1.8933095910593792E+001  0.0000000000000000E+000
       C  0.0000000000000000E+000  0.0000000000000000E+000  1.8933095910593792E+001
       MULTIPLE_UNIT_CELL 1 1 1
     &END CELL
     &COORD
       H  8.5399286784854080E+000  2.4159186194573262E+001 -2.5503382686487408E-001
       H  9.1649247590593124E+000  2.3342325757847568E+001  1.0792731684483190E+000
       O  9.2506280151402223E+000  2.3574670444677857E+001  9.4881268544464631E-002
       H  8.3076206608869363E+000 -7.2487408913381204E+000  2.0942288732623267E+000
       H  8.3948801293907067E+000 -6.8898801004506156E+000  6.7298952993246208E-001
       O  8.8338666450945045E+000 -7.4453604106114604E+000  1.2957126986974861E+000
       H -1.1468029668841249E+001  4.7821580475136244E+001  4.7310701353679079E+001
       H -1.1617332002064114E+001  4.9237246209664889E+001  4.6606417598014261E+001
       O -1.0987369127874294E+001  4.8443890175503917E+001  4.6796341187766238E+001
       H  8.4226839272222964E+000  2.4567861996144487E+001  2.5324308851302177E+001
       H  7.0329496815575521E+000  2.3931458174208768E+001  2.5359692834170353E+001
       O  7.9565544783854989E+000  2.3742594126159982E+001  2.5643592158078128E+001
       H -8.2095828693500295E+000  6.3909803323542151E+000  5.4960147109895958E+000
       H -8.0233176423134562E+000  5.9063345477092426E+000  6.7716614752081217E+000
       O -8.5139965247891425E+000  6.6309099075935807E+000  6.3573608201726932E+000
       H  3.2797912301352433E+001  2.5260433056449759E+001 -7.1916181186099610E+000
       H  3.4171890033507431E+001  2.4841924117380941E+001 -7.7909125448080019E+000
       O  3.3730701229620060E+001  2.5547172072634726E+001 -7.2284904736470343E+000
       H -5.3535165778315914E+000  5.3307119758733394E+000  8.3827783321229745E+000
       H -6.6175499636753976E+000  4.4096184908532097E+000  8.1598123102060995E+000
       O -5.9140277534491750E+000  4.8285314411314362E+000  7.7152509755943388E+000
       H  2.4383077887124863E+001  4.4008099469042197E+000  2.1849755748925834E+000
       H  2.4453084042932655E+001  5.8195848187333743E+000  2.6028401860027790E+000
       O  2.4913949791808573E+001  5.2097991491501308E+000  1.9515619540485809E+000
       H  1.9789744104984603E+001  1.3288139170181468E+001  1.4500311410411836E+001
       H  2.1263863282542463E+001  1.3294511730715394E+001  1.4106323411704379E+001
       O  2.0556925051861587E+001  1.3902333333298262E+001  1.4520402631856076E+001
       H  2.2629758500017651E+001  7.7477544862260772E-001  2.0328851313987361E+001
       H  2.3877105359236140E+001 -2.1846187965749156E-001  2.0342806712201149E+001
       O  2.2992909725336673E+001 -5.4731733757657726E-002  2.0632689555837423E+001
       H  1.0125561246234380E+001 -3.7173050992658760E+000 -7.3111060815540823E+000
       H  9.7912512723515785E+000 -2.3149221776198643E+000 -7.8161610058338304E+000
       O  9.6615817352414854E+000 -3.2272843834687035E+000 -7.9986759652731116E+000
       H  1.1080016814891525E+001  2.8251841198092849E+000  1.8817792324936732E+001
       H  1.2413136586587228E+001  2.6979828659024774E+000  1.7995481005094163E+001
       O  1.2000039991836902E+001  2.6718281693415427E+000  1.8918873966998195E+001
       H  1.5286557219690387E+001  1.6254974975286242E+001  6.1057603779531773E+000
       H  1.6817864953038580E+001  1.6749758178616364E+001  5.7279258460830036E+000
       O  1.6155512958501365E+001  1.6115628540582932E+001  5.6010750151676456E+000
       H  4.4741054971986802E+000 -9.7045877516556711E+000  7.3283521584246403E-001
       H  4.1828533234186160E+000 -1.0669980119496035E+001 -1.2961211112464868E-001
       O  4.7834360432064438E+000 -1.0008162895028827E+001 -8.6916229241701573E-002
       H  3.1032132702532614E+001  3.1813650848032637E+001 -4.0856881627441577E-001
       H  3.1058318760761072E+001  3.3291195956173482E+001  3.3013309136839530E-002
       O  3.1028778877893206E+001  3.2759675096458913E+001 -7.9487752161012515E-001
       H  1.2824588794536821E+001  9.9632576511866910E-001 -7.0286738026898776E+000
       H  1.3304216995089725E+001 -4.6554625649028381E-001 -7.7929932236299200E+000
       O  1.3629837568723007E+001  3.7461042144636847E-001 -7.2138062564957490E+000
       H  2.1662344101420580E+001  1.8664657042546331E+000  4.7150175339067228E+000
       H  2.3105376786251909E+001  1.3856578737374723E+000  4.7060912297540973E+000
       O  2.2554992092729098E+001  2.1882880169706422E+000  4.9049734581626616E+000
       H  7.7609675578343271E+000 -1.6664367378246205E+000  1.6561645402720835E+001
       H  7.6172667427241993E+000 -3.1082459099205608E+000  1.6804843804875247E+001
       O  7.4688706690562690E+000 -2.3043830040615325E+000  1.7288991861696768E+001
       H  3.8909757489294874E+000  1.7243040678283577E+001  8.1554827417281928E+000
       H  5.4913187815057372E+000  1.6841890301024463E+001  8.2716680693577871E+000
       O  4.5355098291578395E+000  1.6486175596412465E+001  8.1561289410803059E+000
       H  2.0968324932644613E+001  2.8274759961689305E+001  3.8509839951891007E+000
       H  1.9401243933139369E+001  2.8160229475752395E+001  3.6963203588433045E+000
       O  2.0241672839852271E+001  2.7604695069801739E+001  3.7136222416837863E+000
       H  1.5926157156327328E+001  6.6371624277432408E+000  2.1993482795205871E+001
       H  1.6098657383277406E+001  7.3281883933709517E+000  2.0717220064790819E+001
       O  1.5962139723896231E+001  7.5646538973814765E+000  2.1662451846420435E+001
       H  7.1482486525478999E+000 -1.2773012512697054E+001  1.5871134441233430E+001
       H  6.4250310355608029E+000 -1.2588500419704552E+001  1.7144328417247955E+001
       O  7.2208944743119172E+000 -1.3008866770756732E+001  1.6880731206874454E+001
       H  2.9495371906392776E+001  1.0337607640513374E+001  2.3546752175759842E+001
       H  3.0038589267274244E+001  1.1156078239715697E+001  2.2332423262514084E+001
       O  2.9499108505990282E+001  1.1182574892538085E+001  2.3175384416385203E+001
       H -1.4579331822189671E+001  8.2165198679044593E+000  1.2488592359942551E+001
       H -1.3748871582163659E+001  8.4094231666357384E+000  1.1350603475854424E+001
       O -1.3631372521378200E+001  8.1316744162093055E+000  1.2250761393777022E+001
       H  2.0011923690602038E+000  3.9732667910307895E+000  8.5213860575273639E+000
       H  2.5271040723207743E+000  5.2603758813382271E+000  9.2162046751847306E+000
       O  2.4737613386170714E+000  4.2741987216259076E+000  9.3201542109442030E+000
       H -1.0437664208827579E+001 -1.5110967426477904E+001  1.6463279845910638E+001
       H -1.0489600573621184E+001 -1.4439388392936609E+001  1.5102710822104564E+001
       O -1.0386574974540167E+001 -1.5334675898244857E+001  1.5501619362401472E+001
       H  2.5041205916421891E+001  9.6746841022109731E+000 -2.0169327307365341E+000
       H  2.5761232207635484E+001  1.0709778280668781E+001 -1.3500759456711773E+000
       O  2.5796247907228182E+001  1.0223158027781222E+001 -2.1335225197697363E+000
       H  1.2525444284786765E+001 -2.0212389146250063E+000  2.5478913650425756E+001
       H  1.3091460663528848E+001 -1.8342161462139213E+000  2.4080888136846319E+001
       O  1.3107607433858993E+001 -2.4117942938307233E+000  2.4872472120019129E+001
       H -8.1055319790535645E+000  1.1021406634023403E+001  1.5306490312361414E+000
       H -6.6651577887677940E+000  1.1508431874391002E+001  1.7475599051662531E+000
       O -7.2732660925546684E+000  1.0792318831515995E+001  1.9299542817366513E+000
       H  4.5770000138929072E+000  7.8891904469197121E+000  3.1132364007074602E+000
       H  3.0220335620865599E+000  7.6328626358044351E+000  2.6177849664944910E+000
       O  3.9278578032089957E+000  8.0364278804913418E+000  2.4033006174976057E+000
       H  6.3854989898699033E-001 -2.0444816626242295E+000  3.7553720710681255E+000
       H  1.1179021890552288E+000 -7.9061524044309173E-001  3.3427549880049723E+000
       O  1.1904399103589458E+000 -1.7053608076880957E+000  3.0372815013385250E+000
       H -3.5900903273696692E+000  2.1114315560484613E+001 -2.8338285031057575E+000
       H -4.4820248279922374E+000  2.1179144322030108E+001 -1.6695627736640923E+000
       O -4.3190088195973155E+000  2.1608608472088896E+001 -2.5873869855634788E+000
       H  2.1091812919723115E+001  2.6705729276241673E+001  9.2608937866152665E+000
       H  2.0485626418851094E+001  2.7072671280840261E+001  7.8661897391795357E+000
       O  2.0390375380227738E+001  2.7289966330836140E+001  8.8298696263032745E+000
       H  2.7023518298099285E+000 -1.5887862864392961E+001 -8.0398954558419646E+000
       H  2.4066443081398696E+000 -1.7301298190569135E+001 -7.5664495779442049E+000
       O  3.1207758722933336E+000 -1.6763816285176190E+001 -7.7595712120807905E+000
       H  9.9910909127834113E+000  5.3958001358942660E+000  9.8042096501876888E+000
       H  1.1198071356287937E+001  4.4787177961605327E+000  1.0099493559681470E+001
       O  1.0277165856640968E+001  4.4861523754769168E+000  9.7165236895170271E+000
       H  9.2188049563933170E+000  1.9873394937114362E+001 -1.8104842918311512E+001
       H  1.0209592886845282E+001  1.9171553058369341E+001 -1.8780369675519896E+001
       O  9.4012795186994946E+000  1.9548507659869134E+001 -1.9025105614282687E+001
       H  1.5048583906201284E+001 -4.5678015851831448E+000 -1.3946263981391702E+001
       H  1.4307137522905203E+001 -5.8721354323803414E+000 -1.4576242127927184E+001
       O  1.4220732819692831E+001 -5.1290604857024631E+000 -1.3982858580085713E+001
       H  1.3607157982312618E+001 -2.8543381615060901E+000  2.8723232745801077E+001
       H  1.4128339143978883E+001 -1.4836937566118360E+000  2.8216841091512698E+001
       O  1.3326641511808738E+001 -1.9372788212660941E+000  2.8630779486641387E+001
       H  2.2931913255980611E+001  5.1407012896876134E+000  1.6682538006613424E+001
       H  2.1885020028891081E+001  3.9851190761529693E+000  1.6787997381750934E+001
       O  2.2249342291567217E+001  4.6167874172653569E+000  1.6196294312460470E+001
       H  1.4174670252943825E+001  2.2051355159394529E+001  1.2035684405017308E+001
       H  1.3818545420449773E+001  2.2903976383995687E+001  1.3169357639161049E+001
       O  1.3454931494457080E+001  2.2637294355325711E+001  1.2326100900616249E+001
       H  3.7367976345117841E+000  4.1034941465263426E+000  5.7120221067807515E+000
       H  2.5421921157022527E+000  5.1493136079739132E+000  5.8066027959096118E+000
       O  3.4591367807017419E+000  5.0972930737550302E+000  5.5410812252942145E+000
       H  1.6909029303264752E+001  2.2856507291211653E+001 -7.6594040893571265E+000
       H  1.7160552710627126E+001  2.1489729738983421E+001 -6.8782083150232518E+000
       O  1.7577640659604221E+001  2.2355244306762842E+001 -7.1704484325663271E+000
       H  3.4483809848740057E+000  3.5355823074719481E+001  1.4472570825468228E+001
       H  4.8988349910286875E+000  3.5320500002747210E+001  1.3796692993242891E+001
       O  3.9222101224787966E+000  3.5543585265628380E+001  1.3617118946194871E+001
       H  9.3849422720337135E+000  2.2645175038382521E+000  1.3457815622074669E+001
       H  1.0761897563766416E+001  2.2762437814314831E+000  1.3969444216028666E+001
       O  1.0254176526657117E+001  1.9128204724247675E+000  1.3277795798250352E+001
       H  1.1635924018852098E+001  1.6444972236880130E+001 -1.8742941553550700E+001
       H  1.2865532873318063E+001  1.6779098421802644E+001 -1.8001676113475501E+001
       O  1.2016451395171451E+001  1.6409004692745086E+001 -1.7812687713226296E+001
       H -8.6557370559328906E+000  1.2986617073838852E+001  5.0562535007857807E+000
       H -7.8421963759827937E+000  1.4227270063453608E+001  5.6602849214610202E+000
       O -8.7905747429554175E+000  1.3910096207910316E+001  5.5636852827708028E+000
       H  7.8932584259083516E+000  3.3918606251228077E+001  1.4630138511088859E+001
       H  7.9485994251627945E+000  3.5283674964771755E+001  1.4013904254934442E+001
       O  7.3212799757076708E+000  3.4689976039213057E+001  1.4486987265288761E+001
       H  6.4255926775461534E+000  7.9901225945004333E+000  1.4227772722382216E+001
       H  6.8368057272823028E+000  6.6103084057668822E+000  1.3457100441682437E+001
       O  6.7452932927326756E+000  7.0340268080330404E+000  1.4302283288488875E+001
       H -8.1846009247763218E-001  1.9098900137719124E+001  1.8776009848689135E-001
       H -1.6928764257521443E+000  1.9889677552485519E+001  8.9884668882252716E-001
       O -8.5078558137103022E-001  1.9425882044021730E+001  1.0773726322803110E+000
       H -4.6920440884511674E+000  1.7044700306087197E+001  2.1937099214335735E+001
       H -4.0538055705110549E+000  1.8542129834106067E+001  2.2325820798986388E+001
       O -4.8956533069779953E+000  1.7970896027804844E+001  2.1966875812736134E+001
       H  1.8060063761254515E+001 -6.9498057957638160E-001  6.3039751457840572E+000
       H  1.9125661705345895E+001 -1.9750788736938720E+000  6.7511170473685906E+000
       O  1.8554909225499010E+001 -1.5043014862288124E+000  6.0438516534481366E+000
       H -3.1068428726909929E+001  7.3942542679610570E+000  2.3186042868606318E+001
       H -3.2303092668140302E+001  6.7198562923607996E+000  2.3939440154565069E+001
       O -3.1984206033709643E+001  7.1027278060316821E+000  2.3086101561971066E+001
       H  1.2360957570046320E+001  8.2356333292805370E+000  1.3606755526017468E+001
       H  1.0866190638449790E+001  8.5047861824172966E+000  1.4084701483447340E+001
       O  1.1441206489146058E+001  8.0294814566433494E+000  1.3451647127201266E+001
       H  1.7385948149936183E+001 -1.6650339535090207E+001  2.5759026619479876E+001
       H  1.6625461505715968E+001 -1.6827221987081245E+001  2.7175615886889723E+001
       O  1.7239669959688545E+001 -1.7279279121892749E+001  2.6473405564406544E+001
       H  3.3736711876479164E-001  1.7420411641488766E+001 -6.0105680592910335E+000
       H -1.1156366188052003E+000  1.7084580450352618E+001 -5.6329653695897166E+000
       O -4.6727581942354895E-001  1.7070381102738420E+001 -6.3281288950225001E+000
       H  1.7749916182455415E+001  1.1288388937050007E+001  1.6926992804534155E+001
       H  1.6428415556091249E+001  1.2154765643777544E+001  1.6718594561957666E+001
       O  1.6990859846394329E+001  1.1425437419666775E+001  1.6440137073878780E+001
       H  3.7963728799188208E+000  9.9593441852835642E+000  2.5592882562202504E+001
       H  2.7120069462739260E+000  1.0820022250506801E+001  2.6382070143330260E+001
       O  3.1105197140848566E+000  1.0784595534220051E+001  2.5506362761157803E+001
       H  1.9883250986114283E+000 -8.0652250051970995E+000 -2.6600999163256192E+000
       H  2.0751883598682577E+000 -6.6441010737839878E+000 -2.0185019965608615E+000
       O  1.6595647665999751E+000 -7.4869318964680138E+000 -1.9657173869148337E+000
       H  2.8475882541901347E+000  8.4983252629049826E+000  1.4956239460124557E+001
       H  3.0828994012089259E+000  8.9328783436400769E+000  1.6528800508747498E+001
       O  3.3915008338417296E+000  8.3483123685021638E+000  1.5732552855851727E+001
       H  8.4107922069463843E+000  2.4093650662339275E+001  3.0175387451743539E+001
       H  8.9745140424877814E+000  2.3649235159691699E+001  3.1552338253377023E+001
       O  8.2189320139104378E+000  2.4073075360576134E+001  3.1164427877197969E+001
       H  9.1772646323691749E+000  3.3097087377541371E+001 -8.3396103670721100E-001
       H  9.9034638753135926E+000  3.1777507307532055E+001 -9.8523373630351485E-001
       O  9.0584526406599153E+000  3.2193534216038280E+001 -1.2226235518138222E+000
       H  1.0582084551234601E+000  1.0275582962007304E+001  1.3233499205874928E+001
       H  2.4481260162616376E+000  1.1034929856165775E+001  1.3123512227131217E+001
       O  1.6541588338678022E+000  1.0934627610075379E+001  1.3642467382390947E+001
       H  1.5377450984857258E+001  1.1451629982835707E+001 -1.7300403594555572E+001
       H  1.4930417474748905E+001  1.0111943847284177E+001 -1.7302607532149747E+001
       O  1.4911835377653349E+001  1.0900161051813734E+001 -1.7862259921661838E+001
       H  1.0895834377961595E+001 -2.0587695788488993E+000  1.6893045927183596E+001
       H  1.1875275209502131E+001 -3.1680903502357340E+000  1.6264042307952980E+001
       O  1.1652204650377673E+001 -2.6429339917296284E+000  1.7120011905980320E+001
       H  1.3787729462727027E+001  4.1695108069646061E+000  2.0805523263703478E+001
       H  1.3318493341738224E+001  5.5556289245861388E+000  2.0220605268317875E+001
       O  1.3545938109704469E+001  5.1608849608833207E+000  2.1068188531740201E+001
       H  2.9504332501147182E+001 -8.1296017548304988E-001  2.2197268940514494E+001
       H  2.8318663691343218E+001 -5.2938923862275966E-001  2.2851376670607827E+001
       O  2.9167921439677684E+001 -1.0146203746566300E+000  2.3076553050075944E+001
       H  1.7608561223222114E+001  1.5780781113316852E+001  1.5453472682011048E+001
       H  1.8115797114892956E+001  1.4663822550919233E+001  1.6327458252487322E+001
       O  1.7362131188528746E+001  1.4856792826676909E+001  1.5748009499845605E+001
       H  1.1399850871273632E+001  5.6029677695061864E+000 -6.0809127525088895E+000
       H  1.1431126062532524E+001  4.3181883512536849E+000 -5.2308197835911603E+000
       O  1.0862807586045845E+001  4.8201239597978116E+000 -5.9027716973229536E+000
       H -1.7995157591624953E+000  1.0891137957026462E+001 -4.7123490279710110E+000
       H -2.2306936683831688E+000  1.1964663140102774E+001 -5.6838489102941141E+000
       O -1.8111880540925711E+000  1.1030982194754133E+001 -5.6526634151870105E+000
       H  9.4656723354410506E+000  8.1450685264817917E+000  1.0777731906104464E+001
       H  8.2920661626804542E+000  7.7507693531487307E+000  9.8256649685209396E+000
       O  8.9579668108357460E+000  7.3788103864010388E+000  1.0438133934293386E+001
       H -1.4051835282741779E+001 -2.1312951133977323E+000  4.2151206029975530E+000
       H -1.4715153159472031E+001 -2.1499928307509633E+000  2.8038168842499100E+000
       O -1.3947609189368213E+001 -2.4109554257051875E+000  3.3360928760825650E+000
       H  1.0553471345436540E+000  9.0486228135784312E+000 -7.5634443033975254E+000
       H  3.2909257025594479E-001  7.8450632230430770E+000 -6.6959666516845671E+000
       O  1.2033687401209903E+000  8.3047891272632572E+000 -6.8311973274145155E+000
       H  1.3849554793091361E+001  9.4623193543442596E+000  7.0489693002486886E+000
       H  1.4948576222190583E+001  1.0447233364815183E+001  7.5601232738778581E+000
       O  1.4735700996124192E+001  9.5445704369835074E+000  7.5193736638992528E+000
       H  3.4893208068872288E+000  1.0681006395034334E+001  8.8970208078535884E-001
       H  3.4251990269307262E+000  1.0665874290544867E+001  2.3589792613463927E+000
       O  3.8537104061400838E+000  1.1088737400432180E+001  1.6365927833902243E+000
       H  1.2751520478878433E+001  1.3623964587479596E+001 -6.5297763109904290E+000
       H  1.3506456260414270E+001  1.3779099580406204E+001 -5.2682319668320678E+000
       O  1.3598185509622581E+001  1.3974382502275756E+001 -6.2566619501897991E+000
       H  1.3533171394614804E+001  1.9214109985622564E+001  1.3382659356498726E+001
       H  1.4029070573401640E+001  1.9699168924736309E+001  1.4745869357340666E+001
       O  1.3227124618320676E+001  1.9202204504752768E+001  1.4339532881934984E+001
       H  5.6156062645418272E+000 -5.9997798426848785E+000 -1.2221196641861985E+001
       H  6.4782214616395679E+000 -4.7878083349153533E+000 -1.1870207329935397E+001
       O  6.0074549989217960E+000 -5.5478319926758468E+000 -1.1461080827670768E+001
       H  8.1299690357801158E+000  8.6321905711036013E+000  2.7014876860871446E+000
       H  9.2933038051319805E+000  7.7863537739378934E+000  3.0389764986841845E+000
       O  8.4189321362578724E+000  8.0345659588234870E+000  3.4192466550951202E+000
       H  1.0525864509203014E+001  1.0130643680344214E+001  9.3310668611751346E+000
       H  1.1012508909243630E+001  1.0584819997807328E+001  1.0802492636591790E+001
       O  1.1164373598595065E+001  9.9729217116709794E+000  1.0105208385061658E+001
       H  3.9960686730613298E-001  6.2045336831764171E-002 -9.1313929746477243E+000
       H -2.3662548375165365E-001  1.2607376886236856E+000 -9.7420702287185108E+000
       O  6.9000786072761500E-002  9.1301768361204050E-001 -8.7965497855763832E+000
       H  3.7884407890385718E+000  1.4589046641944147E+001  4.7658698974301315E+000
       H  2.2529381294820801E+000  1.4308962163943333E+001  4.7711080253383562E+000
       O  3.0530514787268954E+000  1.4460128253582360E+001  5.3323100542522530E+000
       H -7.8249568467912640E+000 -5.5967310679589266E+000  1.4959652303102557E+001
       H -6.3678749172709601E+000 -5.9922822065669115E+000  1.5504792283802269E+001
       O -6.9373503983912528E+000 -5.2323114272883213E+000  1.5147698060668635E+001
       H  1.7671429013630434E+001  8.9008109238900213E-001  1.4522467454664229E+001
       H  1.6814343020450824E+001  1.0459866073791313E-001  1.3529801349409787E+001
       O  1.6960734572632397E+001  1.0678216854671680E+000  1.3820991943812121E+001
       H  1.7388590232671451E+001 -5.7047849995432278E+000  2.9981919867916201E+001
       H  1.6253779211123540E+001 -4.8954467143078206E+000  3.0420599245488653E+001
       O  1.6744473257277715E+001 -4.9610404518276310E+000  2.9619037819967922E+001
       H  1.8686041982333066E+001  9.6263800258190346E-001  2.1595236764445527E+001
       H  1.8862146571358355E+001  1.5104283278363138E+000  2.3064650093880246E+001
       O  1.9295485087816164E+001  1.4026444509540510E+000  2.2251902562107791E+001
       H  9.6966520695461238E+000 -3.2116237003150035E-002 -3.3133800894879197E+000
       H  1.0950141672049801E+001 -3.9354282154293740E-001 -4.0061810576428654E+000
       O  1.0220101255286755E+001 -8.0069632141078184E-001 -3.5466693720245734E+000
       H  8.6536062637176805E+000 -5.8967508026256814E+000 -2.9798258730647782E+000
       H  7.4873729582364428E+000 -6.1757291773983480E+000 -4.0475702709015566E+000
       O  8.3733001863099616E+000 -5.8094204697951879E+000 -3.9696141701621164E+000
       H  3.4725760476473170E+001  1.7192662270375738E+001  1.6753833022688433E+001
       H  3.3533730456892222E+001  1.7066871907255734E+001  1.5985271163063860E+001
       O  3.3785999787128588E+001  1.6937925666249892E+001  1.6875913929923396E+001
       H  1.8053628093493973E+001  1.0498394514699239E+001  9.4761439344323506E+000
       H  1.7594584430782973E+001  1.0987901538942269E+001  8.0722191818482649E+000
       O  1.7461217574628876E+001  1.0342224264188072E+001  8.7732351016958070E+000
       H  8.3008684777512975E+000 -5.1154677364790606E+000  1.0006485753780003E+001
       H  8.7432112028135300E+000 -6.7440307398173172E+000  1.0109155942123762E+001
       O  8.6625473633737222E+000 -5.8690161825397293E+000  1.0522850201404355E+001
       H -9.4369410596256517E-002  4.1776098602066938E+000  6.5344472706415635E+000
       H  4.3698992099322959E-002  3.8046374027682774E+000  5.0831393522950403E+000
       O -2.6482032835350611E-001  3.4404266969998329E+000  5.9508157722184398E+000
       H  1.4671934707254092E+001 -1.3584726958034999E+001 -3.6884568945511185E+000
       H  1.3668276595038845E+001 -1.2714362545054065E+001 -3.2228690925479335E+000
       O  1.4187890042429284E+001 -1.2828150763800942E+001 -3.9766464083303701E+000
       H  2.2104288047158555E+001 -9.9158639757750144E-001 -4.9220088862961597E-001
       H  2.1272325809843299E+001 -2.1963130832516455E+000 -8.6710967024234697E-001