 # Version information for this restart file 
 # current date 2025-03-29 21:35:38.088
 # current working dir /ccc/scratch/cont003/gen2309/sicilana/NPT/128_H2O_4_NaCl_10_wt_673K_1000bar/BATCH_10_MD_T_673_P_1000_steps_1000_dt_0.5_NH2O_128_NaCl_4_abc_17.19_17.19_17.19_wt_9.20
 # Program compiled at                                       2024-10-31 15:04:21
 # Program compiled on                                                 topaze131
 # Program compiled for                                                   x86_64
 # Source code revision number                                                  
 &GLOBAL
   PRINT_LEVEL LOW
   PROJECT_NAME "brines"
   RUN_TYPE MD
   FLUSH_SHOULD_FLUSH T
 &END GLOBAL
 &MOTION
   &MD
     ENSEMBLE NPT_I
     STEPS 1000
     TIMESTEP  4.9999999999999994E-001
     STEP_START_VAL 25950
     TIME_START_VAL  1.2975000000006921E+004
     ECONS_START_VAL -2.4590398713531335E+003
     TEMPERATURE  6.7300000000000011E+002
     &BAROSTAT
       PRESSURE  1.0000000000000000E+003
       TIMECON  9.9999999999999986E+001
       &VELOCITY
           9.7131414547596929E-007
       &END VELOCITY
       &MASS
           4.2836593343398705E+007
       &END MASS
       &THERMOSTAT
         TYPE CSVR
         &CSVR
           TIMECON  4.8377686530095694E+001
           &THERMOSTAT_ENERGY
              -2.0663015063613244E-004
           &END THERMOSTAT_ENERGY
           &RNG_INIT
 Wiener process for Thermostat # 1        1 F T F  -1.2803806950855651E-01        2901176935.0         454700354.0         432689886.0         443123612.0        3266497512.0        1928908258.0             12345.0             12345.0             12345.0             12345.0             12345.0             12345.0             12345.0             12345.0             12345.0             12345.0             12345.0             12345.0
           &END RNG_INIT
         &END CSVR
       &END THERMOSTAT
     &END BAROSTAT
     &THERMOSTAT
       TYPE CSVR
       &CSVR
         TIMECON  4.9999999999999994E+002
         &THERMOSTAT_ENERGY
            -7.9053900422497669E-001
         &END THERMOSTAT_ENERGY
         &RNG_INIT
 Wiener process for Thermostat # 1        1 F T F   2.8274582895462974E-01        3950535698.0        3310833127.0        3799413531.0         129986154.0        3355130637.0        4069997374.0             12345.0             12345.0             12345.0             12345.0             12345.0             12345.0             12345.0             12345.0             12345.0             12345.0             12345.0             12345.0
         &END RNG_INIT
       &END CSVR
     &END THERMOSTAT
     &AVERAGES T
       &RESTART_AVERAGES
         ITIMES_START 1
         AVECPU  2.2941320445422921E+001
         AVEHUGONIOT  0.0000000000000000E+000
         AVETEMP_BARO  3.0115850091876723E+002
         AVEPOT -2.4597136278361559E+003
         AVEKIN  1.2234670487620380E+000
         AVETEMP  6.5872101712478320E+002
         AVEKIN_QM  0.0000000000000000E+000
         AVETEMP_QM  0.0000000000000000E+000
         AVEVOL  3.8482348060905068E+004
         AVECELL_A  3.3686645656315939E+001
         AVECELL_B  3.3686645656315939E+001
         AVECELL_C  3.3686645656315939E+001
         AVEALPHA  9.0000000000000000E+001
         AVEBETA  9.0000000000000000E+001
         AVEGAMMA  9.0000000000000000E+001
         AVE_ECONS -1.2775950733254503E+002
         AVE_PRESS  3.8263365750624837E+002
         AVE_PXX  3.5687262721915135E+002
       &END RESTART_AVERAGES
     &END AVERAGES
   &END MD
   &PRINT
     &TRAJECTORY SILENT
       FILENAME =brines-1.xyz
       &EACH
         MD 1
       &END EACH
     &END TRAJECTORY
     &CELL SILENT
       FILENAME =brines-1.cell_xyz
       &EACH
         MD 1
       &END EACH
     &END CELL
     &VELOCITIES SILENT
       FILENAME =brines-1.vel
       &EACH
         MD 1
       &END EACH
     &END VELOCITIES
     &FORCES SILENT
       FILENAME =brines-1.force
       &EACH
         MD 1
       &END EACH
     &END FORCES
     &STRESS SILENT
       FILENAME =brines-1.stress
       &EACH
         MD 1
       &END EACH
     &END STRESS
     &RESTART SILENT
       FILENAME =brines-1.restart
       &EACH
         MD 1
       &END EACH
     &END RESTART
     &RESTART_HISTORY SILENT
       &EACH
         MD 50
       &END EACH
     &END RESTART_HISTORY
   &END PRINT
 &END MOTION
 &FORCE_EVAL
   METHOD QS
   STRESS_TENSOR ANALYTICAL
   &DFT
     BASIS_SET_FILE_NAME /ccc/work/cont003/gen2309/sicilana/DATA_CP2K/GTH_BASIS_SETS
     POTENTIAL_FILE_NAME /ccc/work/cont003/gen2309/sicilana/DATA_CP2K/GTH_POTENTIALS
     &SCF
       MAX_SCF 50
       EPS_SCF  9.9999999999999995E-008
       &OT T
         MINIMIZER DIIS
         PRECONDITIONER FULL_SINGLE_INVERSE
       &END OT
       &OUTER_SCF T
         EPS_SCF  9.9999999999999995E-008
         MAX_SCF 50
       &END OUTER_SCF
     &END SCF
     &QS
       EPS_DEFAULT  1.0000000000000000E-014
       EPSFIT  1.0000000000000000E-004
       EPSISO  9.9999999999999998E-013
       EPSRHO0  9.9999999999999995E-007
       QUADRATURE GC_LOG
       EXTRAPOLATION ASPC
       METHOD GAPW
     &END QS
     &MGRID
       NGRIDS 4
       CUTOFF  5.0000000000000000E+002
       REL_CUTOFF  6.0000000000000000E+001
     &END MGRID
     &XC
       DENSITY_CUTOFF  1.0000000000000000E-010
       GRADIENT_CUTOFF  1.0000000000000000E-010
       TAU_CUTOFF  1.0000000000000000E-010
       &XC_FUNCTIONAL NO_SHORTCUT
         &PBE T
           PARAMETRIZATION REVPBE
         &END PBE
       &END XC_FUNCTIONAL
       &VDW_POTENTIAL
         POTENTIAL_TYPE PAIR_POTENTIAL
         &PAIR_POTENTIAL
           TYPE DFTD3
           PARAMETER_FILE_NAME /ccc/work/cont003/gen2309/sicilana/DATA_CP2K/dftd3.dat
           REFERENCE_FUNCTIONAL "PBE"
           CALCULATE_C9_TERM T
           REFERENCE_C9_TERM T
           VERBOSE_OUTPUT T
           D3_EXCLUDE_KIND 3
         &END PAIR_POTENTIAL
       &END VDW_POTENTIAL
     &END XC
     &REAL_TIME_PROPAGATION
       INITIAL_WFN RT_RESTART
     &END REAL_TIME_PROPAGATION
     &PRINT
       &MO_CUBES SILENT
         WRITE_CUBE F
         NLUMO 10
         NHOMO 2
         &EACH
           MD 200
         &END EACH
       &END MO_CUBES
     &END PRINT
   &END DFT
   &SUBSYS
     &CELL
       A  1.9605049602884527E+001  0.0000000000000000E+000  0.0000000000000000E+000
       B  0.0000000000000000E+000  1.9605049602884527E+001  0.0000000000000000E+000
       C  0.0000000000000000E+000  0.0000000000000000E+000  1.9605049602884527E+001
       MULTIPLE_UNIT_CELL 1 1 1
     &END CELL
     &COORD
       H  9.5349406243401180E+000  2.4090492915520379E+001  9.5691428996455974E-001
       H  9.3102104777977299E+000  2.4349824631951854E+001  2.4231830249013111E+000
       O  9.8429936301583218E+000  2.3720789940472947E+001  1.8075075641503198E+000
       H  9.1863643969608475E+000 -7.8875756650256230E+000  2.2631155348195424E+000
       H  8.3456216783495076E+000 -9.0984581021281805E+000  2.7577214545188475E+000
       O  8.4174488709003654E+000 -8.0892958665645427E+000  2.7534198453795056E+000
       H -1.0211357655844951E+001  4.9233044998188454E+001  4.9655637903942299E+001
       H -1.0792691249166136E+001  4.9882239156208691E+001  4.8473909844980867E+001
       O -1.0459019512422568E+001  4.9024721123269565E+001  4.8758070109584146E+001
       H  8.6719326150107054E+000  2.3489141575773459E+001  2.6796780375091313E+001
       H  9.9149438772007699E+000  2.3341145464240377E+001  2.5771535389680043E+001
       O  9.1870712063734512E+000  2.3961451629528455E+001  2.6077904522262077E+001
       H -9.1081038418489779E+000  5.0609334777010613E+000  9.8263533370602776E+000
       H -8.3336178930741909E+000  5.9202310214724916E+000  8.8443323895913313E+000
       O -8.6336485736700830E+000  5.9022094165500523E+000  9.7765747719774740E+000
       H  3.4758344613749145E+001  2.8992493577671386E+001 -6.1823011409710196E+000
       H  3.3817587850322369E+001  2.9150193299566055E+001 -7.3696466247269505E+000
       O  3.4380126626374782E+001  2.9695259602863764E+001 -6.8309065956257875E+000
       H -4.8843290432170443E+000  4.9536522313567151E+000  8.3655223508356773E+000
       H -5.4319034657651049E+000  5.7854168093039364E+000  9.5104669530686046E+000
       O -5.5641459067608521E+000  4.8868115299417809E+000  9.0739230666773203E+000
       H  2.5826756089342297E+001  1.5015033454778521E+000  6.2377587628437281E-001
       H  2.5983013949102787E+001  2.7143397045320801E+000 -2.5785850464462784E-001
       O  2.6146941898517781E+001  1.6937446951054245E+000 -2.4701420343113806E-001
       H  2.1963543137763050E+001  1.4096198007878607E+001  1.5268224258787434E+001
       H  2.2434976939280833E+001  1.4185169619138767E+001  1.3940888987843657E+001
       O  2.2705190395635963E+001  1.4388464903837596E+001  1.4823637444455787E+001
       H  2.4181164708756590E+001 -8.8314610267325799E-001  2.2812414563903506E+001
       H  2.4617838081563622E+001 -1.9414516101955228E+000  2.1888238329734232E+001
       O  2.4555126005279174E+001 -9.0337472625041693E-001  2.1984273346460007E+001
       H  7.0662184773409926E+000 -4.0794732384644716E-001 -9.9122220524827434E+000
       H  5.9809910690051833E+000 -6.3145076695565483E-001 -8.8373246040837206E+000
       O  6.6743300701134443E+000  1.1363482620134145E-001 -9.1807414585838760E+000
       H  1.2543525216538873E+001  3.0893338156002850E+000  2.2323312979813444E+001
       H  1.1616465360145044E+001  4.1398164243351552E+000  2.2610952860738024E+001
       O  1.2404983848093954E+001  3.6776736007194319E+000  2.3034268671126817E+001
       H  1.7582735629453573E+001  1.4545189723988065E+001  5.8354473195531771E+000
       H  1.7327834043267302E+001  1.6036171451917820E+001  5.6176193993842389E+000
       O  1.7160302492586808E+001  1.5199463654007287E+001  5.1594003200423639E+000
       H  5.5745862963650268E+000 -1.1162223516686472E+001 -1.1943526873193924E+000
       H  6.8590094485640298E+000 -1.1316726495404037E+001 -2.0483192359216491E+000
       O  6.4365515958403030E+000 -1.0658827005654031E+001 -1.4898275532781893E+000
       H  3.1521755946070630E+001  3.6051055260416298E+001  5.8423438419953913E-002
       H  3.1739084334049352E+001  3.5290096651377453E+001 -1.2793432156774363E+000
       O  3.1056348154005004E+001  3.5707328691760523E+001 -6.8435867973467146E-001
       H  1.4101652760240869E+001  2.1451585398271940E+000 -1.0182898337929302E+001
       H  1.3233089320972180E+001  3.2981195453119918E+000 -1.0504774281934736E+001
       O  1.3267696868396136E+001  2.3382723662783382E+000 -1.0478871955276478E+001
       H  2.0702732849897206E+001  1.7324689264980706E+000  6.0089723112708651E+000
       H  2.0874912237596778E+001  4.0112435178751954E-001  6.7534931759132144E+000
       O  2.1359437423832734E+001  1.2007963940050972E+000  6.5517556860907549E+000
       H  9.4767630297621022E+000 -2.3706638070463573E+000  1.9099259178573867E+001
       H  8.1208803814202195E+000 -1.6307293409449435E+000  1.8569660019350000E+001
       O  8.9622458419065811E+000 -2.0979159440694648E+000  1.8262383043342290E+001
       H  4.9253494944195539E+000  1.8115518431009331E+001  8.4007407470719073E+000
       H  5.2904935065600931E+000  1.7168496611424342E+001  7.3193837005525388E+000
       O  4.5100943384770700E+000  1.7444589112817116E+001  7.8672136681714244E+000
       H  2.1465839046831320E+001  2.6538076728594945E+001  4.3385205097665365E+000
       H  2.1781482505241303E+001  2.7268344807916357E+001  2.9095031588526790E+000
       O  2.1338845206324812E+001  2.6531303785700061E+001  3.3421398750751665E+000
       H  1.7794865382784266E+001  1.0087436490153747E+001  2.0924001372838511E+001
       H  1.7530992251667143E+001  1.1629173896004311E+001  2.0614374653282098E+001
       O  1.7583169049136739E+001  1.0993554757633078E+001  2.1301634401212990E+001
       H  1.0441077247412469E+001 -1.3093983567026809E+001  1.8872635590543691E+001
       H  1.1055356016593947E+001 -1.2477006958881775E+001  1.7676478387759300E+001
       O  1.0170492417607203E+001 -1.2688441007236635E+001  1.8026843046191491E+001
       H  2.9089476196795342E+001  1.3916283551407432E+001  2.4485681741968143E+001
       H  3.0486156399526674E+001  1.3629855553700381E+001  2.4252035767535553E+001
       O  2.9881895415013048E+001  1.4378605801741831E+001  2.4291276313612737E+001
       H -1.7360307530088996E+001  7.4367207844739518E+000  1.4967712619772898E+001
       H -1.6756754011091118E+001  8.4803026210512495E+000  1.4082174604939716E+001
       O -1.7021149596887668E+001  8.3225811279047957E+000  1.4979137033961305E+001
       H  1.1290735868589072E+000  6.5841425284244339E+000  7.4485682103964566E+000
       H  1.0476803950171016E+000  5.4995049896255273E+000  6.2399465558021570E+000
       O  1.6614331360324870E+000  6.1343451131966198E+000  6.7051900132144402E+000
       H -9.4039902130591368E+000 -1.6548439424036662E+001  1.7068210957519856E+001
       H -8.1477953897034432E+000 -1.5621848112089737E+001  1.7262268806065396E+001
       O -8.7945038970725626E+000 -1.6191542991473597E+001  1.7716703905963570E+001
       H  2.7768798728687806E+001  1.0631610628004474E+001 -8.4240056845443156E-001
       H  2.8723976307789695E+001  1.1679781641387498E+001 -6.2208921175703347E-001
       O  2.8667626614868009E+001  1.0715041193332754E+001 -8.2141900809500235E-001
       H  1.2672847051643865E+001 -2.9539436007108200E+000  2.6141839643223843E+001
       H  1.3578976385617596E+001 -3.4287350871066700E+000  2.7387056001250023E+001
       O  1.2802084898889158E+001 -3.6735262825372628E+000  2.6794258050818186E+001
       H -6.1385169153780659E+000  8.7030631722509639E+000 -2.6021297606126650E+000
       H -7.2698893394396515E+000  9.7436087767157016E+000 -2.4860575701959111E+000
       O -6.4535388330666228E+000  9.3936983514814170E+000 -2.0046558532526753E+000
       H  6.0732718925173410E+000  4.9276754437814914E+000  1.4740756592093276E+000
       H  6.8978744000463941E+000  5.7086326406899834E+000  3.9011562323103588E-001
       O  6.2388544371002865E+000  5.0567521065104462E+000  5.1285522535193839E-001
       H  1.9395916039899190E+000 -1.3662715250591206E+000  3.6106980888990052E+000
       H  1.0028094763721174E+000 -6.9756682477447352E-001  2.4934271862657127E+000
       O  1.3881035154701120E+000 -1.6264866967785685E+000  2.8904329530003245E+000
       H -3.1566120368961186E+000  2.1762982036514053E+001 -4.5523862717017520E+000
       H -2.7208017899412278E+000  2.3209046005401891E+001 -4.2569572462741192E+000
       O -3.5220707826866233E+000  2.2691725391938721E+001 -4.5913280738821847E+000
       H  2.3560460226098538E+001  2.7927194116735876E+001  1.1494900941885524E+001
       H  2.3136425535117699E+001  2.6546260411442478E+001  1.0972598157595002E+001
       O  2.3183198065948680E+001  2.7069187551448135E+001  1.1860055237136903E+001
       H  2.7938212613986892E+000 -2.1313550589938625E+001 -6.9421560275486591E+000
       H  1.8366407064560992E+000 -2.0250155307074273E+001 -7.3520290863346309E+000
       O  2.2264891120681791E+000 -2.0562605218230914E+001 -6.5362512077010253E+000
       H  8.4797886259898441E+000  4.4425776617752613E+000  1.1783444846030461E+001
       H  9.2868734194257616E+000  3.1253798190007718E+000  1.1675703570589050E+001
       O  9.0248926274967740E+000  3.9429997992038257E+000  1.1145446974810763E+001
       H  1.1487679477647323E+001  2.0453916315722651E+001 -1.9047628824070419E+001
       H  1.2445308555261471E+001  2.1267147689037113E+001 -1.9710733336833041E+001
       O  1.2443018158972679E+001  2.0546227494460616E+001 -1.9042791684266572E+001
       H  1.3986247346499873E+001 -8.1590554480674307E+000 -1.7371502829014283E+001
       H  1.5397092523118561E+001 -8.1804549463185410E+000 -1.7163907961828755E+001
       O  1.4675383798157535E+001 -7.5332725238195328E+000 -1.7353534854088455E+001
       H  1.4335862657536742E+001 -3.0014964419004126E+000  3.0505641183989383E+001
       H  1.3200924514297940E+001 -3.3467162468651006E+000  2.9452238193278376E+001
       O  1.4211361594636852E+001 -3.1463201125141915E+000  2.9501582119113891E+001
       H  2.3232377145456407E+001  5.4868268545258587E+000  1.6482903365708786E+001
       H  2.2433185634640932E+001  5.9619945135364141E+000  1.7631104234412838E+001
       O  2.2450743793866931E+001  5.2806843663950200E+000  1.7001556111713867E+001
       H  1.5571865270612120E+001  2.2490379483675749E+001  1.2689526071136106E+001
       H  1.6153301679046454E+001  2.3589907573440730E+001  1.1896048182114408E+001
       O  1.5836636851093791E+001  2.2663519226762826E+001  1.1791732559843213E+001
       H  2.5342653990493589E+000  3.7322821173379443E+000  3.5680397362641627E+000
       H  3.6354476633157398E+000  2.6627828417317589E+000  3.8092567099966228E+000
       O  3.3394169457518550E+000  3.4915164243799559E+000  4.0341965924810745E+000
       H  1.8206337711205414E+001  2.2908184310272048E+001 -7.8479633186828677E+000
       H  1.9035739743310238E+001  2.2360592169541789E+001 -6.6889831443207841E+000
       O  1.9067935906803758E+001  2.3012388515825787E+001 -7.4460031155882778E+000
       H  2.5476640445040046E+000  3.6662733325932109E+001  1.5881280997833647E+001
       H  3.7991007189051147E+000  3.5947964987740967E+001  1.5352586845156138E+001
       O  3.5317069148592548E+000  3.6587350943362715E+001  1.6057000720371814E+001
       H  1.3509953798885439E+001  1.4967967767004133E+000  1.2387920401823235E+001
       H  1.2526693819820204E+001  2.0587191144580808E+000  1.1196436421961751E+001
       O  1.2572322015860681E+001  1.4770878792280986E+000  1.2000742597474751E+001
       H  1.3347628816304661E+001  1.7752781658328885E+001 -1.8849768777877408E+001
       H  1.3655642709673153E+001  1.7688240436675130E+001 -1.7304187872601116E+001
       O  1.3536223823906289E+001  1.7112881575357186E+001 -1.8081808998657852E+001
       H -9.9502085905949418E+000  1.5161408772387114E+001  6.7884848967251985E+000
       H -8.4738105109650483E+000  1.5661597002899329E+001  7.5696833560537433E+000
       O -9.4572083670060643E+000  1.5571328595936361E+001  7.5838085044650105E+000
       H  1.0665768400223355E+001  3.7260411757750028E+001  1.4750154913646981E+001
       H  1.0251239380112272E+001  3.6973052959145271E+001  1.6343207419486966E+001
       O  1.0868263661848186E+001  3.6767140292052446E+001  1.5577995164470073E+001
       H  5.7808206683669354E+000  5.6111123743726496E+000  1.7336753617345519E+001
       H  6.1393445316486410E+000  5.8762738358777584E+000  1.5870418727877285E+001
       O  5.4477262762918626E+000  6.1806335101384482E+000  1.6530929851747484E+001
       H -2.2531797186064924E+000  2.0789569757615634E+001 -1.0041010236381385E+000
       H -1.5499357690722295E+000  1.9706239513147427E+001 -1.0301637409947548E+000
       O -1.5522939999792402E+000  2.0456174853096762E+001 -4.2214834195350986E-001
       H -5.8885253654465881E+000  1.9196087477260260E+001  2.4631685929526022E+001
       H -4.8610112479518497E+000  1.8586329641170732E+001  2.3549079759095989E+001
       O -5.8271649674431307E+000  1.8795596130780194E+001  2.3683079471749291E+001
       H  1.9663946562912926E+001 -3.6587602822576635E+000  6.0372733457888081E+000
       H  1.9470150207799865E+001 -2.8517913309981311E+000  7.4307011188408030E+000
       O  1.9181375763471014E+001 -2.9229886320973466E+000  6.5289211749138136E+000
       H -3.3056390821095597E+001  5.9168947549890269E+000  2.3648128413016654E+001
       H -3.4410963915080366E+001  5.1183649665426296E+000  2.3359562799595036E+001
       O -3.3594859944010850E+001  5.5365948734390704E+000  2.2907978522894346E+001
       H  1.0391033967250806E+001  9.9385144624598372E+000  1.3935582577346123E+001
       H  1.0898323566795872E+001  1.0744805067326922E+001  1.2833799928474434E+001
       O  1.0322109337373888E+001  9.9786549254408854E+000  1.2974723345827549E+001
       H  1.8063774412214322E+001 -1.7027419242502624E+001  2.4221959223503532E+001
       H  1.7812195838245593E+001 -1.7332354214155668E+001  2.5666236207025026E+001
       O  1.8425441153772066E+001 -1.7501525043324257E+001  2.4975948454406080E+001
       H -1.3430745465819955E+000  1.6840857633330486E+001 -5.2264450047044715E+000
       H  2.1738393637941854E-002  1.7529807371291543E+001 -5.5145975307619963E+000
       O -7.6004244423602751E-001  1.7108031234888092E+001 -5.9623758186135305E+000
       H  1.8706043220787148E+001  1.0581274710924552E+001  1.7200875284388459E+001
       H  2.0061118987850509E+001  1.0096784080989586E+001  1.6613302049300763E+001
       O  1.9328845712459810E+001  1.0768240948634906E+001  1.6475594494247407E+001
       H  3.0186331155196848E+000  9.9232819546005171E+000  2.6901626116923204E+001
       H  3.4000017928433510E+000  8.4603789259669675E+000  2.6559348974674272E+001
       O  2.6323241812847229E+000  9.1455501831860957E+000  2.6702991490950918E+001
       H  2.3117788742315279E+000 -7.2963656576091447E+000 -2.5856380924199653E+000
       H  2.6152938344078001E+000 -6.1761429184795817E+000 -1.4204465106948192E+000
       O  2.8885938301072560E+000 -6.9254059284828200E+000 -1.9248235505073308E+000
       H  2.9555078254439797E+000  1.0510387224846559E+001  1.7637854056731985E+001
       H  2.9207919024328515E+000  8.9731770298842033E+000  1.7362331915509859E+001
       O  2.4644018562458010E+000  9.6543479646792694E+000  1.7986646616702821E+001
       H  7.6951217339911047E+000  2.4881884201352968E+001  3.3820810104649652E+001
       H  6.7786510440596919E+000  2.3945362703599084E+001  3.3139507485362564E+001
       O  7.1939094392559397E+000  2.4074736179811882E+001  3.4039162981250051E+001
       H  8.5561907491471452E+000  3.4020778821256712E+001 -1.7533421423227162E+000
       H  9.8710239609535773E+000  3.3393698753636883E+001 -1.8201113064361385E+000
       O  9.0458378131732609E+000  3.3405568938596780E+001 -2.2917048466397283E+000
       H -4.4193903115109220E-002  1.1048366651605576E+001  1.2412800234503761E+001
       H -9.8595883694293707E-001  1.2188517874699071E+001  1.2628628283160410E+001
       O -4.3078769147588408E-001  1.1758054730159607E+001  1.1913557294387479E+001
       H  1.5666797131138194E+001  1.2290580394863497E+001 -1.9709251415640573E+001
       H  1.6236605902245756E+001  1.3150323869307261E+001 -2.0781726200694845E+001
       O  1.6106058716070713E+001  1.3081362493072321E+001 -1.9860818682288308E+001
       H  1.2714083048863726E+001 -1.5536921128750192E+000  1.7555730812902063E+001
       H  1.2370374378608334E+001 -1.6330368571768916E+000  1.6156861305313701E+001
       O  1.3124058123733938E+001 -1.2653857244008637E+000  1.6750333010092991E+001
       H  1.5273606559755208E+001  8.1670575197124986E+000  2.1228603838056735E+001
       H  1.5596287958151906E+001  6.8768592303170823E+000  2.2084806145206667E+001
       O  1.5719681261640481E+001  7.3319143401231983E+000  2.1126677248433470E+001
       H  2.9822517283906958E+001 -1.6086379387244767E+000  2.3848150118502485E+001
       H  3.1154304617445749E+001 -1.5204340457429903E+000  2.3394389710671376E+001
       O  3.0228674273677907E+001 -1.3437016726666366E+000  2.3009971055282875E+001
       H  2.2919110004153755E+001  1.5701224121467650E+001  1.8349221951333920E+001
       H  2.1568810228857327E+001  1.5585133787121137E+001  1.7785303979236879E+001
       O  2.2052399800210303E+001  1.5331980459780663E+001  1.8568309749999251E+001
       H  1.0100852616073572E+001  5.5069422353380073E+000 -6.0568378199569937E+000
       H  1.0619339729163658E+001  4.2774600111098922E+000 -5.2481046003831704E+000
       O  1.0811514181507505E+001  5.2068423268157735E+000 -5.4942067397255405E+000
       H -3.0520594798860476E+000  1.2213517524792859E+001 -5.8524290959349923E+000
       H -2.3416267481509285E+000  1.3532769114369426E+001 -6.0172130888987141E+000
       O -2.1941303002189714E+000  1.2589882423290671E+001 -5.9805972388764896E+000
       H  8.1540700105884323E+000  7.9067401938661925E+000  1.2952580317233398E+001
       H  8.6042141580194986E+000  6.9198135491822246E+000  1.1926593133661589E+001
       O  8.0168617079247664E+000  6.9645326128391565E+000  1.2698265051848097E+001
       H -1.6147254490256373E+001 -4.4539499357676284E+000  5.4494765856576723E+000
       H -1.5537074804485949E+001 -4.0597580182794326E+000  4.2204349172575180E+000
       O -1.6424047199479293E+001 -4.0217523496342480E+000  4.6422978891631477E+000
       H  9.0313197780122853E-002  7.5587891025087393E+000 -7.7294599985841774E+000
       H  2.3430385295707781E-001  8.4041401240834297E+000 -8.9852386903064190E+000
       O -1.8480962231924908E-001  8.3986901306852353E+000 -8.0893637471173836E+000
       H  1.3842814805241582E+001  8.9502962692784589E+000  7.7660818659413486E+000
       H  1.3909816706808787E+001  1.0040983566866977E+001  8.8720162501136919E+000
       O  1.4462292964573269E+001  9.7112919889010527E+000  8.1212701145286097E+000
       H  3.6390238961009858E+000  1.2374370922852846E+001  1.8806881126004664E+000
       H  2.6047931337974908E+000  1.1865552393243693E+001  2.7655853282500540E+000
       O  3.4658940193514907E+000  1.1647019838140501E+001  2.4079057874873104E+000
       H  1.3196264292489431E+001  1.6139648968988556E+001 -6.5337213033976473E+000
       H  1.3848818487685664E+001  1.4915419011002154E+001 -7.2367521130355748E+000
       O  1.3985930489535059E+001  1.5837477795229514E+001 -7.0094306850506811E+000
       H  1.5266713912859675E+001  1.9408930407784752E+001  1.3767959621952327E+001
       H  1.4098617749326875E+001  2.0467918050566801E+001  1.4086632220476377E+001
       O  1.5069706954777580E+001  2.0318151678567226E+001  1.3813998187313441E+001
       H  5.8726083016599935E+000 -4.9131689712946427E+000 -1.3173642364753713E+001
       H  5.0233650350213859E+000 -5.4171521410027372E+000 -1.1903618098208669E+001
       O  5.1056593860852084E+000 -4.6724136263872040E+000 -1.2597305166355110E+001
       H  7.0182556302150259E+000  1.1195204845373530E+001  5.9326558524792192E+000
       H  6.1532473688788603E+000  1.2384471261535047E+001  5.3193262672957138E+000
       O  6.9997571061275075E+000  1.2175690316351506E+001  5.6877253269016226E+000
       H  1.1915776433495942E+001  8.0220292917125722E+000  9.7880187526643851E+000
       H  1.2344196175750474E+001  9.4284445461019821E+000  1.0208585231196484E+001
       O  1.2642711395352745E+001  8.6048809472023002E+000  9.9077466176922382E+000
       H  6.5356632177150087E-001  3.4173218789068721E-001 -9.2184754628535259E+000
       H  4.4908861017692620E-001  1.7492351976560081E+000 -8.7014680872467611E+000
       O  2.9819970273365459E-001  8.3949144155451594E-001 -8.5236641108178510E+000
       H  1.4434541451707019E+000  1.3910489147534440E+001  6.2135873290190506E+000
       H  2.2352314846506349E+000  1.3506970303853473E+001  7.4882916853411876E+000
       O  1.6353379285821268E+000  1.4174220235925926E+001  7.0978577220594676E+000
       H -6.1793952382902457E+000 -6.2672340655508192E+000  1.8126690059477546E+001
       H -6.8642058695265185E+000 -6.7474685599461068E+000  1.6791276946161094E+001
       O -6.9277915801762910E+000 -6.0492312089169893E+000  1.7524962184241101E+001
       H  1.9689959720884517E+001  2.3000141331227195E+000  1.5532766747823448E+001
       H  1.9290250660353575E+001  1.0171586149758038E+000  1.4771879878993857E+001
       O  1.9082091970278960E+001  1.9636390772770878E+000  1.4883449787885505E+001
       H  1.6853269711581312E+001 -4.4736358878035443E+000  2.9001460457867708E+001
       H  1.8094188975481934E+001 -5.1718857869566639E+000  2.9807035121501826E+001
       O  1.7255683242027821E+001 -4.5532992538076362E+000  2.9925926738329942E+001
       H  1.9464061766464976E+001  1.4420331427769983E+000  2.0728543843189502E+001
       H  2.0213336928304923E+001  1.8016477433734781E+000  2.1982232428782098E+001
       O  2.0363801902245015E+001  1.2767291208071085E+000  2.1180040486329283E+001
       H  9.1358573555677314E+000  2.2672453151203014E+000 -5.9110358352224948E+000
       H  1.0157667234581028E+001  1.1537244695914757E+000 -5.5318094051614599E+000
       O  9.6318259615542559E+000  1.9847118401774839E+000 -5.1293435348472967E+000
       H  1.0676284529105320E+001 -6.1952570708993520E+000 -4.9411544110231462E+000
       H  9.2794235585384648E+000 -6.5317017330224090E+000 -4.4200299076659375E+000
       O  9.9142190915148625E+000 -6.7348633520533348E+000 -5.0897808947242993E+000
       H  3.5674624672148290E+001  1.5648462466050750E+001  1.4213825941985613E+001
       H  3.6101770296203071E+001  1.4373094179667222E+001  1.5050892901036352E+001
       O  3.6469968779977620E+001  1.5225392409162732E+001  1.4568253777358615E+001
       H  2.0670773078747072E+001  9.3148604096186940E+000  8.1248551684640979E+000
       H  1.9317033496003155E+001  9.5177811626831250E+000  7.6275053904999375E+000
       O  1.9768245090317119E+001  9.2138095643570495E+000  8.4707117197505788E+000
       H  7.8995407995342886E+000 -7.0604445010705623E+000  7.9888163482704453E+000
       H  9.3801146130495319E+000 -6.4838322811372979E+000  7.8261522785454005E+000
       O  8.8483731308404465E+000 -7.2551943095029250E+000  7.9029969862751734E+000
       H -4.4865293346446924E+000  5.0242104915507229E+000  4.2797916890466761E+000
       H -4.6649298976650746E+000  6.1033695665777969E+000  5.3566564871831464E+000
       O -4.1474990703393608E+000  5.8916226920376928E+000  4.5159886716373823E+000
       H  1.3154809906752423E+001 -1.4041181877631274E+001 -4.3026943596608014E+000
       H  1.4220312181982731E+001 -1.4255923552062971E+001 -3.1062644688658936E+000
       O  1.3327561922174237E+001 -1.3774650584893521E+001 -3.3623667091734122E+000
       H  2.1799588385327606E+001 -2.3514159611281147E+000  3.1418843517749984E-001
       H  2.2655912552712557E+001 -1.5619065018494873E+000  1.3321911173715226E+000