 # Version information for this restart file 
 # current date 2025-03-29 21:13:17.294
 # current working dir /ccc/scratch/cont003/gen2309/sicilana/NPT/128_H2O_4_NaCl_10_wt_673K_1000bar/BATCH_10_MD_T_673_P_1000_steps_1000_dt_0.5_NH2O_128_NaCl_4_abc_17.19_17.19_17.19_wt_9.20
 # Program compiled at                                       2024-10-31 15:04:21
 # Program compiled on                                                 topaze131
 # Program compiled for                                                   x86_64
 # Source code revision number                                                  
 &GLOBAL
   PRINT_LEVEL LOW
   PROJECT_NAME "brines"
   RUN_TYPE MD
   FLUSH_SHOULD_FLUSH T
 &END GLOBAL
 &MOTION
   &MD
     ENSEMBLE NPT_I
     STEPS 1000
     TIMESTEP  4.9999999999999994E-001
     STEP_START_VAL 25900
     TIME_START_VAL  1.2950000000006959E+004
     ECONS_START_VAL -2.4590398713531335E+003
     TEMPERATURE  6.7300000000000011E+002
     &BAROSTAT
       PRESSURE  1.0000000000000000E+003
       TIMECON  9.9999999999999986E+001
       &VELOCITY
           4.1557562518901324E-006
       &END VELOCITY
       &MASS
           4.2836593343398705E+007
       &END MASS
       &THERMOSTAT
         TYPE CSVR
         &CSVR
           TIMECON  4.8377686530095694E+001
           &THERMOSTAT_ENERGY
              -1.7886025329378886E-004
           &END THERMOSTAT_ENERGY
           &RNG_INIT
 Wiener process for Thermostat # 1        1 F T F   5.3229198483114755E-02        1951023329.0        1609837563.0        1494358746.0        3447642446.0        2952979709.0         526632307.0             12345.0             12345.0             12345.0             12345.0             12345.0             12345.0             12345.0             12345.0             12345.0             12345.0             12345.0             12345.0
           &END RNG_INIT
         &END CSVR
       &END THERMOSTAT
     &END BAROSTAT
     &THERMOSTAT
       TYPE CSVR
       &CSVR
         TIMECON  4.9999999999999994E+002
         &THERMOSTAT_ENERGY
            -8.0598020477357268E-001
         &END THERMOSTAT_ENERGY
         &RNG_INIT
 Wiener process for Thermostat # 1        1 F T F  -7.1673577507489994E-01        3636834341.0          66939608.0        2193114563.0        2902695898.0        3806231212.0         543145581.0             12345.0             12345.0             12345.0             12345.0             12345.0             12345.0             12345.0             12345.0             12345.0             12345.0             12345.0             12345.0
         &END RNG_INIT
       &END CSVR
     &END THERMOSTAT
     &AVERAGES T
       &RESTART_AVERAGES
         ITIMES_START 1
         AVECPU  2.2933844755659560E+001
         AVEHUGONIOT  0.0000000000000000E+000
         AVETEMP_BARO  3.0138645560029289E+002
         AVEPOT -2.4597131509462602E+003
         AVEKIN  1.2237109255762655E+000
         AVETEMP  6.5885232166893411E+002
         AVEKIN_QM  0.0000000000000000E+000
         AVETEMP_QM  0.0000000000000000E+000
         AVEVOL  3.8458816748071498E+004
         AVECELL_A  3.3680240567876709E+001
         AVECELL_B  3.3680240567876709E+001
         AVECELL_C  3.3680240567876709E+001
         AVEALPHA  9.0000000000000000E+001
         AVEBETA  9.0000000000000000E+001
         AVEGAMMA  9.0000000000000000E+001
         AVE_ECONS -1.2730616757343101E+002
         AVE_PRESS  3.8198941858779733E+002
         AVE_PXX  3.5504372673809939E+002
       &END RESTART_AVERAGES
     &END AVERAGES
   &END MD
   &PRINT
     &TRAJECTORY SILENT
       FILENAME =brines-1.xyz
       &EACH
         MD 1
       &END EACH
     &END TRAJECTORY
     &CELL SILENT
       FILENAME =brines-1.cell_xyz
       &EACH
         MD 1
       &END EACH
     &END CELL
     &VELOCITIES SILENT
       FILENAME =brines-1.vel
       &EACH
         MD 1
       &END EACH
     &END VELOCITIES
     &FORCES SILENT
       FILENAME =brines-1.force
       &EACH
         MD 1
       &END EACH
     &END FORCES
     &STRESS SILENT
       FILENAME =brines-1.stress
       &EACH
         MD 1
       &END EACH
     &END STRESS
     &RESTART SILENT
       FILENAME =brines-1.restart
       &EACH
         MD 1
       &END EACH
     &END RESTART
     &RESTART_HISTORY SILENT
       &EACH
         MD 50
       &END EACH
     &END RESTART_HISTORY
   &END PRINT
 &END MOTION
 &FORCE_EVAL
   METHOD QS
   STRESS_TENSOR ANALYTICAL
   &DFT
     BASIS_SET_FILE_NAME /ccc/work/cont003/gen2309/sicilana/DATA_CP2K/GTH_BASIS_SETS
     POTENTIAL_FILE_NAME /ccc/work/cont003/gen2309/sicilana/DATA_CP2K/GTH_POTENTIALS
     &SCF
       MAX_SCF 50
       EPS_SCF  9.9999999999999995E-008
       &OT T
         MINIMIZER DIIS
         PRECONDITIONER FULL_SINGLE_INVERSE
       &END OT
       &OUTER_SCF T
         EPS_SCF  9.9999999999999995E-008
         MAX_SCF 50
       &END OUTER_SCF
     &END SCF
     &QS
       EPS_DEFAULT  1.0000000000000000E-014
       EPSFIT  1.0000000000000000E-004
       EPSISO  9.9999999999999998E-013
       EPSRHO0  9.9999999999999995E-007
       QUADRATURE GC_LOG
       EXTRAPOLATION ASPC
       METHOD GAPW
     &END QS
     &MGRID
       NGRIDS 4
       CUTOFF  5.0000000000000000E+002
       REL_CUTOFF  6.0000000000000000E+001
     &END MGRID
     &XC
       DENSITY_CUTOFF  1.0000000000000000E-010
       GRADIENT_CUTOFF  1.0000000000000000E-010
       TAU_CUTOFF  1.0000000000000000E-010
       &XC_FUNCTIONAL NO_SHORTCUT
         &PBE T
           PARAMETRIZATION REVPBE
         &END PBE
       &END XC_FUNCTIONAL
       &VDW_POTENTIAL
         POTENTIAL_TYPE PAIR_POTENTIAL
         &PAIR_POTENTIAL
           TYPE DFTD3
           PARAMETER_FILE_NAME /ccc/work/cont003/gen2309/sicilana/DATA_CP2K/dftd3.dat
           REFERENCE_FUNCTIONAL "PBE"
           CALCULATE_C9_TERM T
           REFERENCE_C9_TERM T
           VERBOSE_OUTPUT T
           D3_EXCLUDE_KIND 3
         &END PAIR_POTENTIAL
       &END VDW_POTENTIAL
     &END XC
     &REAL_TIME_PROPAGATION
       INITIAL_WFN RT_RESTART
     &END REAL_TIME_PROPAGATION
     &PRINT
       &MO_CUBES SILENT
         WRITE_CUBE F
         NLUMO 10
         NHOMO 2
         &EACH
           MD 200
         &END EACH
       &END MO_CUBES
     &END PRINT
   &END DFT
   &SUBSYS
     &CELL
       A  1.9539630615449305E+001  0.0000000000000000E+000  0.0000000000000000E+000
       B  0.0000000000000000E+000  1.9539630615449305E+001  0.0000000000000000E+000
       C  0.0000000000000000E+000  0.0000000000000000E+000  1.9539630615449305E+001
       MULTIPLE_UNIT_CELL 1 1 1
     &END CELL
     &COORD
       H  9.6413915267900219E+000  2.3874813868025065E+001  8.5756137405448485E-001
       H  9.1462694995199829E+000  2.4351899294089645E+001  2.1932768470930633E+000
       O  9.7504280821446105E+000  2.3611080390143034E+001  1.8004653689113821E+000
       H  8.6297627828588173E+000 -7.4317345758913529E+000  1.8703628276537887E+000
       H  8.7767555741915046E+000 -8.7991270278928102E+000  2.1885672545051813E+000
       O  8.4988925298570344E+000 -7.9901882245961930E+000  2.6353516008945195E+000
       H -1.0343837932213420E+001  4.9033155891391324E+001  4.9597319415498816E+001
       H -1.0417363461945607E+001  4.9667184347576516E+001  4.8106296368879214E+001
       O -1.0525128088396867E+001  4.8833599968869152E+001  4.8622035987264134E+001
       H  8.3081224820468744E+000  2.3452339083446279E+001  2.6329407802424811E+001
       H  9.8038422531935154E+000  2.3074993632937794E+001  2.6103318782371009E+001
       O  9.2080762565224497E+000  2.3859851651979600E+001  2.6268866733357942E+001
       H -8.8396883975745535E+000  5.5173445012852103E+000  1.0138058984262043E+001
       H -7.7625676194441473E+000  5.0912680181930554E+000  9.1379212068596072E+000
       O -8.3017155685959860E+000  5.9422562162067933E+000  9.3656384968722417E+000
       H  3.4723684121832662E+001  2.8725730370542326E+001 -6.0405617156100693E+000
       H  3.3713489765448806E+001  2.8655341993402391E+001 -7.2879621453582129E+000
       O  3.4272854436481637E+001  2.9261017565157015E+001 -6.7745431105526084E+000
       H -4.7075858489019806E+000  5.3430993225101178E+000  8.6569215807642177E+000
       H -5.7280929881485614E+000  5.2412491173591649E+000  9.7979178504596174E+000
       O -5.5756004190812973E+000  4.9264800870766008E+000  8.9231376435310921E+000
       H  2.6194526061557884E+001  1.8744653677392600E+000  9.2160891022162283E-001
       H  2.6141208424935627E+001  3.0869591717811442E+000  2.3960502269550937E-001
       O  2.6149969033113280E+001  2.1503020001493631E+000 -2.6201416625808070E-002
       H  2.1988364723850150E+001  1.4012364964329466E+001  1.5187820320193907E+001
       H  2.2652173672154053E+001  1.3589926083425148E+001  1.3923513826179159E+001
       O  2.2682421969507107E+001  1.4360563095272568E+001  1.4644945285157069E+001
       H  2.4227954349066209E+001 -2.2934067450978141E-001  2.2386676318053919E+001
       H  2.5176117659963129E+001 -1.3786594904907472E+000  2.1765423565030023E+001
       O  2.4373661975198907E+001 -8.2078478258349186E-001  2.1683875603923191E+001
       H  7.2324549631592348E+000 -5.0920112485858093E-001 -9.6233017674765691E+000
       H  6.7682540799520137E+000 -6.9572585232347228E-001 -8.2038878943131479E+000
       O  6.9423058425145117E+000  4.6316859128644569E-002 -8.8681645994029132E+000
       H  1.2893307136900070E+001  2.8606414408338781E+000  2.2513019645622588E+001
       H  1.1526388178305883E+001  3.5906450606377196E+000  2.2261748271627049E+001
       O  1.2365313929290664E+001  3.6557587290768931E+000  2.2762252508517982E+001
       H  1.7771977734219906E+001  1.4632625936947194E+001  5.3273795942049995E+000
       H  1.7460374640086680E+001  1.5982885970410674E+001  5.8630204758058415E+000
       O  1.6990298045853706E+001  1.5285792903759605E+001  5.3497303051085181E+000
       H  5.3687521284341297E+000 -1.0831362639190608E+001 -1.4414987050818513E+000
       H  6.7196053393388420E+000 -1.0718883366622475E+001 -2.2552147150645308E+000
       O  6.3517053504389462E+000 -1.0682913968587908E+001 -1.3807795364262125E+000
       H  3.1781175760040298E+001  3.5280301649130358E+001 -3.3145589830809993E-002
       H  3.1244109543606907E+001  3.4525366773921334E+001 -1.2533354518828999E+000
       O  3.1107109912927463E+001  3.5290145697687862E+001 -6.9742445128512953E-001
       H  1.3894901514458915E+001  1.6292265704053686E+000 -1.0225395116968757E+001
       H  1.3488738961266307E+001  3.2415746180703469E+000 -1.0217385282517780E+001
       O  1.3160072415324873E+001  2.2924417755343511E+000 -1.0366882060414149E+001
       H  2.0356764491597673E+001  1.3548818314983011E+000  6.2549021572897345E+000
       H  2.1321239663527336E+001  3.2295275790921701E-001  6.7382719814319278E+000
       O  2.1305528981019837E+001  1.2324401335847133E+000  6.4515706348009703E+000
       H  9.1155967615226015E+000 -2.3065226985222775E+000  1.9170249277721148E+001
       H  7.9693689572302473E+000 -1.6634731064179971E+000  1.8469643135013786E+001
       O  8.7976952405986495E+000 -2.1465239780498480E+000  1.8269107980150800E+001
       H  5.0340713784410429E+000  1.8207238789980352E+001  8.1415568985492417E+000
       H  4.6706214893769022E+000  1.6829401834871291E+001  7.3191082900539843E+000
       O  4.4272503188817849E+000  1.7421746558536114E+001  8.0833087978212284E+000
       H  2.1366287768652022E+001  2.6538710331505332E+001  4.4461263792293595E+000
       H  2.2278661207711206E+001  2.6751546404147437E+001  3.2579618492885629E+000
       O  2.1316295557816805E+001  2.6514307410835730E+001  3.4736479966495089E+000
       H  1.8437108747339714E+001  1.0373765798218878E+001  2.1123519280571387E+001
       H  1.7217982980491353E+001  1.1033094875029141E+001  2.0406589733855139E+001
       O  1.7521067212231035E+001  1.0725342610603626E+001  2.1318367699675509E+001
       H  1.0870997784153783E+001 -1.2452303436450213E+001  1.8501925032240905E+001
       H  1.0184020859844122E+001 -1.2338479920783719E+001  1.7194994340056670E+001
       O  1.0050907779857939E+001 -1.2859795144465453E+001  1.8037521710413060E+001
       H  2.9275866586110009E+001  1.3972898847308931E+001  2.3522239258270286E+001
       H  3.0601873127950100E+001  1.3679157800017679E+001  2.4153811819152754E+001
       O  2.9793214461653292E+001  1.4096824757896117E+001  2.4401785177461104E+001
       H -1.7391276293626120E+001  7.7190112541457845E+000  1.5238638530124994E+001
       H -1.6026804700039190E+001  7.7062094346275138E+000  1.4449779497508420E+001
       O -1.6781354092443220E+001  8.2865875591359917E+000  1.4750039336398418E+001
       H  1.0584179184315519E+000  6.6418172063252028E+000  7.0338325858081454E+000
       H  1.3064558166163691E+000  5.2578651999386716E+000  6.3416486336056783E+000
       O  1.7461737439655918E+000  6.0486286999635768E+000  6.6655541112045658E+000
       H -9.7207433784286685E+000 -1.6390171890180316E+001  1.7083920824429949E+001
       H -8.5147390571457073E+000 -1.5365184142472398E+001  1.7046323981649994E+001
       O -8.8490246884102444E+000 -1.6167766556019092E+001  1.7426595132517210E+001
       H  2.7573953664477720E+001  1.0187093007180124E+001 -8.8157027966652612E-001
       H  2.8183476576986457E+001  1.1487757791619837E+001 -1.5313775497154278E+000
       O  2.8458457297915640E+001  1.0732492175790741E+001 -9.2968723608488091E-001
       H  1.3053651353351064E+001 -2.9560034690317920E+000  2.6164626272665739E+001
       H  1.3698504819327242E+001 -3.9614348010074507E+000  2.7211101660551989E+001
       O  1.2876597396453338E+001 -3.7148804600481906E+000  2.6662641232077949E+001
       H -6.0181214859345911E+000  8.9281319431225121E+000 -1.7138086412324285E+000
       H -7.2151105331168015E+000  9.3259513670351648E+000 -2.6364952077152894E+000
       O -6.6450339322020291E+000  9.6520412737453380E+000 -1.9357318246249973E+000
       H  5.5932008207789847E+000  5.0707835655403342E+000  1.4907723087560147E+000
       H  6.5061954769009960E+000  5.6653376442892327E+000  1.8031814548948219E-001
       O  5.9659073763252897E+000  4.9522613969228404E+000  5.6881644184911717E-001
       H  1.1680375036537216E+000 -1.3608154891702138E+000  3.7749247178708094E+000
       H  1.0142582531893136E+000 -9.1073441085544071E-001  2.5062311984278489E+000
       O  1.4661256372994411E+000 -1.6277823584677376E+000  2.9089658486708161E+000
       H -2.9407524887683270E+000  2.1967939077046754E+001 -4.8592710211946706E+000
       H -2.9289314596928882E+000  2.3364682320025700E+001 -4.2223280480907448E+000
       O -3.5909030656161676E+000  2.2570161464582693E+001 -4.4629235255050119E+000
       H  2.3156378357806844E+001  2.8171428713828909E+001  1.1438132262992722E+001
       H  2.3513569116589085E+001  2.6625791203161036E+001  1.1245808747453712E+001
       O  2.2924296290480189E+001  2.7230517323018493E+001  1.1787218153230494E+001
       H  2.6600143778144596E+000 -2.0868137420122796E+001 -7.2113131733775777E+000
       H  1.6585163518215629E+000 -1.9846078778551441E+001 -7.1369661174141097E+000
       O  2.1366942128172171E+000 -2.0403629689145561E+001 -6.5541514068389501E+000
       H  9.2791362246289921E+000  4.3816766241143332E+000  1.1898205748640416E+001
       H  9.5940165000459938E+000  3.2977854884096773E+000  1.0964917687377492E+001
       O  8.9992317555056438E+000  4.0318956464829654E+000  1.1044500671230312E+001
       H  1.1220365156718545E+001  2.0415127681972471E+001 -1.9401825647582228E+001
       H  1.2841097451436154E+001  2.0681602667395165E+001 -1.9516040908993048E+001
       O  1.2136564890108740E+001  2.0305924151822257E+001 -1.8976762517562662E+001
       H  1.4144626914362563E+001 -7.8488382411350122E+000 -1.7791004147059876E+001
       H  1.5004149115092451E+001 -8.0576796459464166E+000 -1.6503674711581485E+001
       O  1.4689439086691669E+001 -7.3615808187174947E+000 -1.7089931683654672E+001
       H  1.4534397292975756E+001 -3.4411899107717194E+000  3.0186334431620168E+001
       H  1.3130075592255301E+001 -3.3853035174070905E+000  2.9605802686930364E+001
       O  1.4082130294160553E+001 -3.1234398106933763E+000  2.9399290696364059E+001
       H  2.3441981527503359E+001  5.0483981066279329E+000  1.6580155971172200E+001
       H  2.2435163958103857E+001  6.0361121242563902E+000  1.7059771497187558E+001
       O  2.2427676496282899E+001  5.1355152204192560E+000  1.6772231674547925E+001
       H  1.5857604328547795E+001  2.2043330548577789E+001  1.2329826579476581E+001
       H  1.5707930592769646E+001  2.3561806357835032E+001  1.2490451422290132E+001
       O  1.5681247359275700E+001  2.2843646055551243E+001  1.1791472603677747E+001
       H  2.4157640335020116E+000  4.0656485081824165E+000  4.2053963015778644E+000
       H  3.3222542018116759E+000  2.8884448108669458E+000  3.6992043445251683E+000
       O  3.3432727294996409E+000  3.7683207848319538E+000  4.0851607810906705E+000
       H  1.8021949103543040E+001  2.2565080261670676E+001 -7.5437627179327045E+000
       H  1.9197506677556120E+001  2.2759424870792071E+001 -6.6271018063784268E+000
       O  1.8959720427469311E+001  2.2752056702441863E+001 -7.5358122086941393E+000
       H  3.2876939016538604E+000  3.7475094122439643E+001  1.5481035631544369E+001
       H  3.0865269969718496E+000  3.5910332457453507E+001  1.5685643991827122E+001
       O  3.6784873160128160E+000  3.6587167237538978E+001  1.5850080740826630E+001
       H  1.3235688932999286E+001  1.6315450995647105E+000  1.2514566841711686E+001
       H  1.2646090077059528E+001  1.4945914792279089E+000  1.0991323086117402E+001
       O  1.2441278780526792E+001  1.4478670391150388E+000  1.1930939772897769E+001
       H  1.3847411362564518E+001  1.8042621163334626E+001 -1.8430679688289178E+001
       H  1.2799702128473918E+001  1.7396654025628514E+001 -1.7503370432124800E+001
       O  1.3468787680034044E+001  1.7163452373911774E+001 -1.8193454976978504E+001
       H -9.3388335573485879E+000  1.5116650223922779E+001  6.5646131102817469E+000
       H -8.5400948964100447E+000  1.5662556495214462E+001  7.7075426631838617E+000
       O -9.4807816069595354E+000  1.5608221715770920E+001  7.4321028811692491E+000
       H  1.0550960796914946E+001  3.7066532072917440E+001  1.4777151483169179E+001
       H  1.0201068845137783E+001  3.6832042885301647E+001  1.6236553177736123E+001
       O  1.0919168960306635E+001  3.6709991347595718E+001  1.5618653728742750E+001
       H  6.1609440740869985E+000  5.8777121619437578E+000  1.6919423452075115E+001
       H  5.6899261870262086E+000  6.4548759449106647E+000  1.5562016005097277E+001
       O  5.4174209864674694E+000  6.2868182082332407E+000  1.6444093983345322E+001
       H -2.3311265731907316E+000  1.9852039172491917E+001 -3.4774209788131068E-002
       H -1.1707203260471146E+000  1.9779708530336102E+001 -9.8701700282899718E-001
       O -1.6290202863743426E+000  2.0429304585581178E+001 -3.4635855934387266E-001
       H -5.4690791032372283E+000  1.9444138231574559E+001  2.4195752120657424E+001
       H -4.9459355769767361E+000  1.8265693021332179E+001  2.3479689957537371E+001
       O -5.7315697487488988E+000  1.8645014506697031E+001  2.3670191406293878E+001
       H  1.9797268331516971E+001 -3.0252995483515526E+000  5.9113890492513290E+000
       H  1.9288093396242981E+001 -1.9988634350507539E+000  7.0273662709755937E+000
       O  1.8996195856332459E+001 -2.7603890114959180E+000  6.4500385601075338E+000
       H -3.3206672170577193E+001  6.2373164537799246E+000  2.3772823664861964E+001
       H -3.4205496900632653E+001  5.2160177205245351E+000  2.3323942899618906E+001
       O -3.3462972518050798E+001  5.6837968385345690E+000  2.2989567635284189E+001
       H  1.0375159095411007E+001  9.9790400242211312E+000  1.4086625152946032E+001
       H  1.0572581357738722E+001  1.0723473168313122E+001  1.2864992619608241E+001
       O  1.0319163525213993E+001  9.8198664188664537E+000  1.3155701981999856E+001
       H  1.8166789871967648E+001 -1.6678465818149700E+001  2.4873639769118405E+001
       H  1.8200850462376412E+001 -1.7509794241035067E+001  2.6174444973185466E+001
       O  1.8375945716540421E+001 -1.7646901616594914E+001  2.5212770580010378E+001
       H -1.3766577954620933E+000  1.6520878275771306E+001 -5.5937883672744135E+000
       H -4.7197706425884067E-001  1.7723179770712893E+001 -5.1310708175821036E+000
       O -6.1643356152414785E-001  1.7098057707725410E+001 -5.8795845394469177E+000
       H  1.9593576024695626E+001  1.0629117410347483E+001  1.7422768099412295E+001
       H  1.9649811646421572E+001  1.0404652363728763E+001  1.5688405372279657E+001
       O  1.9251726969027160E+001  1.0875077261306449E+001  1.6459657679574555E+001
       H  3.4687040283579762E+000  9.3375769795768750E+000  2.7307006491981252E+001
       H  3.0341305055999750E+000  8.5521358497379385E+000  2.6022435961398273E+001
       O  2.7378404630105462E+000  9.2947889392124150E+000  2.6633918742149213E+001
       H  1.7541281722091551E+000 -6.9776921129753005E+000 -2.1301048933106994E+000
       H  2.8794587540799044E+000 -5.8831295629072793E+000 -1.6788277294302234E+000
       O  2.6983509673446759E+000 -6.8266836146590801E+000 -1.9325407675642705E+000
       H  2.7963545221917196E+000  1.0358849242514921E+001  1.7402734584418287E+001
       H  1.9596383065877283E+000  8.9745301789215990E+000  1.7315173155351808E+001
       O  2.3442205436339130E+000  9.5622891608171816E+000  1.7872773673108934E+001
       H  7.6597859028818398E+000  2.4649360967085453E+001  3.3733125864430235E+001
       H  7.0486542499515572E+000  2.3742034461985455E+001  3.2752307805218805E+001
       O  7.1879103625056251E+000  2.3817812439243870E+001  3.3666392535632930E+001
       H  8.7404337309186584E+000  3.4263872121672662E+001 -1.9992599484560369E+000
       H  9.9363685405696440E+000  3.3333627290923168E+001 -2.1736138335897692E+000
       O  8.9818506590831007E+000  3.3321488338892493E+001 -2.1912275264255801E+000
       H -1.2091779980006549E-001  1.0903011376879457E+001  1.2365630867154437E+001
       H -9.8014763571406227E-001  1.2120188557358373E+001  1.2443419988341777E+001
       O -4.3273584303750268E-001  1.1598656769970532E+001  1.1799747758300557E+001
       H  1.5107031859130586E+001  1.2814903589937618E+001 -1.9687078890473437E+001
       H  1.6179155531837424E+001  1.2831543817103983E+001 -2.0928803437640589E+001
       O  1.6065007519902888E+001  1.2920582398954663E+001 -1.9924543777920004E+001
       H  1.3057393819847146E+001 -1.7177228112213956E+000  1.7533517060240435E+001
       H  1.2177362338109154E+001 -1.5695749811330320E+000  1.6381800040157881E+001
       O  1.2944580794746352E+001 -1.1364121286326343E+000  1.6763373195115133E+001
       H  1.4971243880516118E+001  7.7500306217957435E+000  2.1370511348033268E+001
       H  1.6173131259416103E+001  7.0771941450756604E+000  2.1717542132510982E+001
       O  1.5561193328813040E+001  7.1947174818900157E+000  2.0999283416911272E+001
       H  3.0263673546487183E+001 -1.7491206937763959E+000  2.3943136566702982E+001
       H  3.0785443675783128E+001 -6.3766201244003884E-001  2.3304809526220293E+001
       O  3.0163517706148077E+001 -1.3470238787093785E+000  2.3099593863891371E+001
       H  2.2908947376537142E+001  1.5880122200757608E+001  1.8415744833340707E+001
       H  2.1521411396734397E+001  1.5969341101074367E+001  1.7723997866163327E+001
       O  2.2035150487528984E+001  1.5400752684903987E+001  1.8324770050621623E+001
       H  1.0413614913599391E+001  5.9976141790061330E+000 -5.6090905671013394E+000
       H  1.0280013906597938E+001  4.5405556330040815E+000 -5.8273066086623455E+000
       O  1.0882583942218412E+001  5.1588786408592826E+000 -5.4951066188221320E+000
       H -3.1895624120589252E+000  1.2055945159268546E+001 -6.2448990592803302E+000
       H -2.7380156835824034E+000  1.3392676792270613E+001 -5.5631636167919867E+000
       O -2.4260108521673058E+000  1.2529939198207099E+001 -5.9308518597870092E+000
       H  8.1970841729961350E+000  7.7652006013455726E+000  1.3126889150351966E+001
       H  7.9237558062349933E+000  7.3738110823523479E+000  1.1615382595458325E+001
       O  8.1289394076747445E+000  6.9822717412030419E+000  1.2483426745558011E+001
       H -1.5926757195518936E+001 -3.9807563411485427E+000  5.5508308697026782E+000
       H -1.5530488652080168E+001 -4.8108451681638851E+000  4.3649841683860959E+000
       O -1.6251187492822250E+001 -4.0310613572792562E+000  4.6062332663275383E+000
       H  7.8950953202863206E-001  8.2883594232995996E+000 -7.5760313167171454E+000
       H  1.0699583694200952E-001  8.6230519721901544E+000 -8.9317443765817881E+000
       O -1.3998161249923396E-001  8.3484066053441754E+000 -7.9307450201772012E+000
       H  1.4877311966314803E+001  9.0083751051314209E+000  7.7704042133291376E+000
       H  1.3776451784079944E+001  9.5264083967187254E+000  8.6436600559492760E+000
       O  1.4554345516352837E+001  9.8412635312538050E+000  8.1359408739814896E+000
       H  3.6345627368698792E+000  1.2044518117965280E+001  1.4361990030555958E+000
       H  2.7899709151555023E+000  1.2011384217408830E+001  2.5729095490339455E+000
       O  3.7335868455128818E+000  1.1826279783529738E+001  2.3852705179066636E+000
       H  1.3506929641686149E+001  1.6185535006034566E+001 -6.5493249261344477E+000
       H  1.4256347672264720E+001  1.4800696763092489E+001 -7.2152174194200684E+000
       O  1.4360074511327701E+001  1.5699682203739110E+001 -6.8423423806653263E+000
       H  1.4595807897719670E+001  1.9311391059974397E+001  1.3616894357899753E+001
       H  1.4810177445380940E+001  2.0304327719992028E+001  1.4699115294101539E+001
       O  1.4862277945568129E+001  2.0216366874610607E+001  1.3743562392517020E+001
       H  5.9176300755838778E+000 -4.5131101284398341E+000 -1.2636341847210829E+001
       H  4.7595079359813051E+000 -5.2270439619275093E+000 -1.1873086124176833E+001
       O  4.9393279048410976E+000 -4.7233754064735214E+000 -1.2687439479589218E+001
       H  7.5081397961889076E+000  1.1085637221926421E+001  5.5809000280833807E+000
       H  6.2794179655454121E+000  1.2085339911367219E+001  5.5888609645041658E+000
       O  7.2125328040641010E+000  1.2033096552221386E+001  5.7492603146422834E+000
       H  1.2416745659087432E+001  7.5863859381460017E+000  9.7276663676514303E+000
       H  1.1904791215103435E+001  9.1223751295643609E+000  9.8134559682101017E+000
       O  1.2694612818323067E+001  8.5527304674253539E+000  9.9944866440610980E+000
       H  4.6331070516581691E-001 -2.5205568207128648E-001 -9.2977599915244120E+000
       H  7.1678694905412432E-001  1.4905957697181502E+000 -9.0261447197302864E+000
       O  2.7483878095430531E-001  6.6461627850046678E-001 -8.7369317917699050E+000
       H  1.6373531491913902E+000  1.3494984251411136E+001  5.9875962120214856E+000
       H  2.1734004365720625E+000  1.3588400850845110E+001  7.4001371120266155E+000
       O  1.5447186109851558E+000  1.4047948226008421E+001  6.7556430516850430E+000
       H -6.3464840959572912E+000 -6.0661952491447524E+000  1.8184557252063431E+001
       H -6.5129354145724951E+000 -6.5426413167513910E+000  1.6649948508491050E+001
       O -6.8990494816632078E+000 -5.9996947722029574E+000  1.7398140284756916E+001
       H  1.9477950982175891E+001  2.0003271130983924E+000  1.5572794594539536E+001
       H  1.9204458407747438E+001  1.1247383905755994E+000  1.4332343609213851E+001
       O  1.9063939646251118E+001  1.9970424080910461E+000  1.4723447934014738E+001
       H  1.6421386175187092E+001 -5.0182183385365713E+000  2.9225651409780497E+001
       H  1.7842637983964448E+001 -5.0241942772522776E+000  2.9302217593485839E+001
       O  1.7131877710639820E+001 -4.5982106908283757E+000  2.9762548735309856E+001
       H  1.9783364511617169E+001  1.1287078424930346E+000  2.0515089324201718E+001
       H  2.0082308504844313E+001  1.7959163375679712E+000  2.1831064505160516E+001
       O  2.0429509258902339E+001  1.1630188260181140E+000  2.1265618043125937E+001
       H  9.1131419921458541E+000  2.5906426686876647E+000 -5.0442044478242503E+000
       H  1.0159302548612201E+001  1.8261090772361290E+000 -5.9378355774067648E+000
       O  9.5397210679763749E+000  1.7226415010335034E+000 -5.1535033882396251E+000
       H  1.0443831527170978E+001 -6.3204686553390577E+000 -4.9273621120436673E+000
       H  8.8841914021492112E+000 -6.3552787188001503E+000 -4.7442982577488149E+000
       O  9.6906530866629748E+000 -6.8021487861260832E+000 -5.0997782286493392E+000
       H  3.5423229482883336E+001  1.5447397010144947E+001  1.4637775990990711E+001
       H  3.6561666793643937E+001  1.5612489868153293E+001  1.5435027523518766E+001
       O  3.6361977685120507E+001  1.5295649133590967E+001  1.4550319687145395E+001
       H  2.0498756415867167E+001  9.0609762319684251E+000  7.9112182846347423E+000
       H  1.9235385892458620E+001  9.8413820246069310E+000  7.5854712347890674E+000
       O  1.9600529101981131E+001  9.1985432488458621E+000  8.2596748015980204E+000
       H  8.4760720312777913E+000 -7.0656561426573479E+000  6.8350779712723817E+000
       H  9.2271830022273491E+000 -6.1646655675213511E+000  7.8688639909547806E+000
       O  8.7222002252063806E+000 -7.0123477878154397E+000  7.7880883137138683E+000
       H -4.7804945177231746E+000  5.2253987783236751E+000  4.4321770388489821E+000
       H -3.8569603539312221E+000  5.5904465902803127E+000  5.5576603304403314E+000
       O -3.8967391605105250E+000  5.6110070663847464E+000  4.5895029665979239E+000
       H  1.2332951721003429E+001 -1.3499893445488457E+001 -3.5941528470967663E+000
       H  1.3137692971065874E+001 -1.4243896666627169E+001 -4.3124661431083195E+000
       O  1.3262564922890089E+001 -1.3762384465254787E+001 -3.5163009964114336E+000
       H  2.1960135915736259E+001 -2.7158808197354523E+000  6.6326229287043925E-001
       H  2.2911019772115345E+001 -1.5901792715322993E+000  1.0211281032132966E+000