 # Version information for this restart file 
 # current date 2025-03-29 18:33:45.162
 # current working dir /ccc/scratch/cont003/gen2309/sicilana/NPT/128_H2O_4_NaCl_10_wt_673K_1000bar/BATCH_10_MD_T_673_P_1000_steps_1000_dt_0.5_NH2O_128_NaCl_4_abc_17.19_17.19_17.19_wt_9.20
 # Program compiled at                                       2024-10-31 15:04:21
 # Program compiled on                                                 topaze131
 # Program compiled for                                                   x86_64
 # Source code revision number                                                  
 &GLOBAL
   PRINT_LEVEL LOW
   PROJECT_NAME "brines"
   RUN_TYPE MD
   FLUSH_SHOULD_FLUSH T
 &END GLOBAL
 &MOTION
   &MD
     ENSEMBLE NPT_I
     STEPS 1000
     TIMESTEP  4.9999999999999994E-001
     STEP_START_VAL 25550
     TIME_START_VAL  1.2775000000007229E+004
     ECONS_START_VAL -2.4590398713531335E+003
     TEMPERATURE  6.7300000000000011E+002
     &BAROSTAT
       PRESSURE  1.0000000000000000E+003
       TIMECON  9.9999999999999986E+001
       &VELOCITY
           6.7986118125687569E-006
       &END VELOCITY
       &MASS
           4.2836593343398705E+007
       &END MASS
       &THERMOSTAT
         TYPE CSVR
         &CSVR
           TIMECON  4.8377686530095694E+001
           &THERMOSTAT_ENERGY
              -9.5039794337099803E-004
           &END THERMOSTAT_ENERGY
           &RNG_INIT
 Wiener process for Thermostat # 1        1 F T F   2.9224351095266893E-01        3416463946.0        2452937782.0        2378933391.0         857267652.0        3980998017.0        3981071111.0             12345.0             12345.0             12345.0             12345.0             12345.0             12345.0             12345.0             12345.0             12345.0             12345.0             12345.0             12345.0
           &END RNG_INIT
         &END CSVR
       &END THERMOSTAT
     &END BAROSTAT
     &THERMOSTAT
       TYPE CSVR
       &CSVR
         TIMECON  4.9999999999999994E+002
         &THERMOSTAT_ENERGY
            -7.6544749034010029E-001
         &END THERMOSTAT_ENERGY
         &RNG_INIT
 Wiener process for Thermostat # 1        1 F T F   3.2961892198607456E-01        2446698754.0        3862785280.0        1956428075.0         961547857.0         106045087.0        1232037173.0             12345.0             12345.0             12345.0             12345.0             12345.0             12345.0             12345.0             12345.0             12345.0             12345.0             12345.0             12345.0
         &END RNG_INIT
       &END CSVR
     &END THERMOSTAT
     &AVERAGES T
       &RESTART_AVERAGES
         ITIMES_START 1
         AVECPU  2.2873363891263747E+001
         AVEHUGONIOT  0.0000000000000000E+000
         AVETEMP_BARO  3.0124636245859483E+002
         AVEPOT -2.4597092203178213E+003
         AVEKIN  1.2249385321953661E+000
         AVETEMP  6.5951327145224241E+002
         AVEKIN_QM  0.0000000000000000E+000
         AVETEMP_QM  0.0000000000000000E+000
         AVEVOL  3.8328882875687625E+004
         AVECELL_A  3.3643995060934110E+001
         AVECELL_B  3.3643995060934110E+001
         AVECELL_C  3.3643995060934110E+001
         AVEALPHA  9.0000000000000000E+001
         AVEBETA  9.0000000000000000E+001
         AVEGAMMA  9.0000000000000000E+001
         AVE_ECONS -1.2408613836425683E+002
         AVE_PRESS  3.7428646845593397E+002
         AVE_PXX  3.4217831656800655E+002
       &END RESTART_AVERAGES
     &END AVERAGES
   &END MD
   &PRINT
     &TRAJECTORY SILENT
       FILENAME =brines-1.xyz
       &EACH
         MD 1
       &END EACH
     &END TRAJECTORY
     &CELL SILENT
       FILENAME =brines-1.cell_xyz
       &EACH
         MD 1
       &END EACH
     &END CELL
     &VELOCITIES SILENT
       FILENAME =brines-1.vel
       &EACH
         MD 1
       &END EACH
     &END VELOCITIES
     &FORCES SILENT
       FILENAME =brines-1.force
       &EACH
         MD 1
       &END EACH
     &END FORCES
     &STRESS SILENT
       FILENAME =brines-1.stress
       &EACH
         MD 1
       &END EACH
     &END STRESS
     &RESTART SILENT
       FILENAME =brines-1.restart
       &EACH
         MD 1
       &END EACH
     &END RESTART
     &RESTART_HISTORY SILENT
       &EACH
         MD 50
       &END EACH
     &END RESTART_HISTORY
   &END PRINT
 &END MOTION
 &FORCE_EVAL
   METHOD QS
   STRESS_TENSOR ANALYTICAL
   &DFT
     BASIS_SET_FILE_NAME /ccc/work/cont003/gen2309/sicilana/DATA_CP2K/GTH_BASIS_SETS
     POTENTIAL_FILE_NAME /ccc/work/cont003/gen2309/sicilana/DATA_CP2K/GTH_POTENTIALS
     &SCF
       MAX_SCF 50
       EPS_SCF  9.9999999999999995E-008
       &OT T
         MINIMIZER DIIS
         PRECONDITIONER FULL_SINGLE_INVERSE
       &END OT
       &OUTER_SCF T
         EPS_SCF  9.9999999999999995E-008
         MAX_SCF 50
       &END OUTER_SCF
     &END SCF
     &QS
       EPS_DEFAULT  1.0000000000000000E-014
       EPSFIT  1.0000000000000000E-004
       EPSISO  9.9999999999999998E-013
       EPSRHO0  9.9999999999999995E-007
       QUADRATURE GC_LOG
       EXTRAPOLATION ASPC
       METHOD GAPW
     &END QS
     &MGRID
       NGRIDS 4
       CUTOFF  5.0000000000000000E+002
       REL_CUTOFF  6.0000000000000000E+001
     &END MGRID
     &XC
       DENSITY_CUTOFF  1.0000000000000000E-010
       GRADIENT_CUTOFF  1.0000000000000000E-010
       TAU_CUTOFF  1.0000000000000000E-010
       &XC_FUNCTIONAL NO_SHORTCUT
         &PBE T
           PARAMETRIZATION REVPBE
         &END PBE
       &END XC_FUNCTIONAL
       &VDW_POTENTIAL
         POTENTIAL_TYPE PAIR_POTENTIAL
         &PAIR_POTENTIAL
           TYPE DFTD3
           PARAMETER_FILE_NAME /ccc/work/cont003/gen2309/sicilana/DATA_CP2K/dftd3.dat
           REFERENCE_FUNCTIONAL "PBE"
           CALCULATE_C9_TERM T
           REFERENCE_C9_TERM T
           VERBOSE_OUTPUT T
           D3_EXCLUDE_KIND 3
         &END PAIR_POTENTIAL
       &END VDW_POTENTIAL
     &END XC
     &REAL_TIME_PROPAGATION
       INITIAL_WFN RT_RESTART
     &END REAL_TIME_PROPAGATION
     &PRINT
       &MO_CUBES SILENT
         WRITE_CUBE F
         NLUMO 10
         NHOMO 2
         &EACH
           MD 200
         &END EACH
       &END MO_CUBES
     &END PRINT
   &END DFT
   &SUBSYS
     &CELL
       A  1.8968032828273170E+001  0.0000000000000000E+000  0.0000000000000000E+000
       B  0.0000000000000000E+000  1.8968032828273170E+001  0.0000000000000000E+000
       C  0.0000000000000000E+000  0.0000000000000000E+000  1.8968032828273170E+001
       MULTIPLE_UNIT_CELL 1 1 1
     &END CELL
     &COORD
       H  9.8601023007804987E+000  2.3421876074037410E+001  7.1054338014447160E-002
       H  8.7051927734994514E+000  2.2906466600145002E+001  1.1466405455326927E+000
       O  9.6840920354231752E+000  2.3113468876014348E+001  1.0264124850386065E+000
       H  8.1857627201257177E+000 -6.7524894928457710E+000  1.5303969885634741E+000
       H  9.1274528771420087E+000 -7.9544180393996520E+000  1.5219821018227504E+000
       O  8.9054360810099773E+000 -7.2070615659344481E+000  1.9958980742385124E+000
       H -1.0521870634039150E+001  4.7422971061589067E+001  4.7873084211444677E+001
       H -9.8544280154177084E+000  4.8342710974880468E+001  4.6857591871377529E+001
       O -1.0663285266823065E+001  4.7820282789281009E+001  4.6968284212328953E+001
       H  9.0770667061765735E+000  2.2744099653331137E+001  2.5858000895075641E+001
       H  8.0567584096089639E+000  2.4011218600093663E+001  2.5986435502258811E+001
       O  8.5900035043095198E+000  2.3321563886391424E+001  2.6494314682400496E+001
       H -8.2226013196280601E+000  6.4903721639924745E+000  6.8117508681037604E+000
       H -7.5383263616646472E+000  5.7556681123929874E+000  8.1553484111542325E+000
       O -7.4620059608930145E+000  6.4078584536001593E+000  7.3671519746518550E+000
       H  3.3631788855842366E+001  2.6054827897288053E+001 -6.8953708174473709E+000
       H  3.2169362364872050E+001  2.6618645250984049E+001 -6.9679480920772123E+000
       O  3.3122273333504793E+001  2.6806041106682397E+001 -6.7610148548331308E+000
       H -5.3412235417971639E+000  4.6474398077547736E+000  8.1190732564770070E+000
       H -4.9957872640720256E+000  4.3276700371241272E+000  9.5542617543263955E+000
       O -5.4904492611793785E+000  3.9668966020151060E+000  8.7508897197659969E+000
       H  2.5108610392732590E+001  3.4718923565368547E+000  1.5432195662065429E+000
       H  2.5280385592263627E+001  4.2458074533519756E+000  2.0719080898910039E-001
       O  2.5658858303828154E+001  3.5598193794646025E+000  7.2655041632905282E-001
       H  2.1440969593857460E+001  1.4355696956723495E+001  1.4809585280500865E+001
       H  2.1257468901426652E+001  1.3355470904292941E+001  1.3633325364778793E+001
       O  2.1835753647216315E+001  1.3966205950493780E+001  1.4066570695278077E+001
       H  2.2771945557067443E+001 -7.8384542903022270E-002  2.1411792759531771E+001
       H  2.3968309773518307E+001 -4.6073320952832125E-001  2.0672883998197733E+001
       O  2.3027773496490770E+001 -5.4013266291320750E-001  2.0597660886608356E+001
       H  9.7727750682750738E+000 -6.3447383254983702E-001 -7.2819606473924665E+000
       H  8.4850366735988381E+000 -1.5800633669852151E+000 -7.1463421374201115E+000
       O  8.9779318164949728E+000 -9.9649356827546642E-001 -7.8139305714950424E+000
       H  1.2136218349161050E+001  2.2352321228307543E+000  2.0472381136000649E+001
       H  1.1306318034158441E+001  3.4248174102176292E+000  2.0847628959102732E+001
       O  1.2207036936545757E+001  3.1238068143019420E+000  2.0943683029769623E+001
       H  1.6325931662542068E+001  1.5064799663354071E+001  5.6270923709689491E+000
       H  1.6787316116720955E+001  1.6490772363239831E+001  5.7097012814158594E+000
       O  1.6225573985150334E+001  1.5855842963355531E+001  5.1717778817356503E+000
       H  4.9105490318522467E+000 -1.0923192293669047E+001 -3.2299132702435357E-001
       H  5.0517023422132441E+000 -1.0257596791424858E+001 -1.6119455353753460E+000
       O  5.5575635526223293E+000 -1.0363898574555318E+001 -7.1781574231546119E-001
       H  3.1124099212649870E+001  3.3844978263826441E+001 -2.4219111935600605E-002
       H  3.1325487121652351E+001  3.2610897324792454E+001 -9.1699499648645055E-001
       O  3.0747990107489752E+001  3.3009208168979377E+001 -2.4102275553150723E-001
       H  1.3938746988355065E+001  7.5098773631851246E-001 -9.3148513689058134E+000
       H  1.3228650073211714E+001  1.8046124944682502E+000 -1.0006526541196852E+001
       O  1.3074371543171843E+001  1.0350514001100741E+000 -9.4323807369557393E+000
       H  2.0960236184857834E+001  7.7831790364860720E-001  6.1887608908431355E+000
       H  2.1006537449307473E+001  1.3031864176695798E+000  4.6946896933321955E+000
       O  2.1200100975601710E+001  1.5351139257963085E+000  5.6340683883713174E+000
       H  7.6822047714548365E+000 -2.3902537206594867E+000  1.7012117581620863E+001
       H  8.8432703495411946E+000 -2.3660078279014618E+000  1.8097803494355944E+001
       O  7.9942726156420933E+000 -2.7837610575012035E+000  1.7866116643921892E+001
       H  4.5397723250663837E+000  1.7777817468570358E+001  7.8334102947091422E+000
       H  5.6191310899030382E+000  1.6757719325354348E+001  8.0708223774652943E+000
       O  4.6651201054711828E+000  1.6819283650723289E+001  8.0671035599630994E+000
       H  2.0469798153257880E+001  2.6887495170290194E+001  4.5697002551544914E+000
       H  2.1198969811489693E+001  2.5693598107458865E+001  3.7651616764781362E+000
       O  2.0882309577345044E+001  2.6618642708553384E+001  3.7058260194595944E+000
       H  1.5998487627455830E+001  8.4969783826027605E+000  2.0450498713297520E+001
       H  1.6178876756532162E+001  1.0032388561817569E+001  2.0753031402158527E+001
       O  1.6072680726643508E+001  9.1260240518830784E+000  2.1160526794294597E+001
       H  9.2730193249471426E+000 -1.2565254065700124E+001  1.7271398838921595E+001
       H  7.7837323681942125E+000 -1.3133607038406769E+001  1.6753811397836994E+001
       O  8.5857281165636099E+000 -1.3293938071571846E+001  1.7341385854336458E+001
       H  2.9834378369006032E+001  1.1574448516983972E+001  2.4094066575875019E+001
       H  2.9322912600190076E+001  1.2094723249125312E+001  2.2798880284645328E+001
       O  2.9248033541904082E+001  1.2211076839678173E+001  2.3809730946454394E+001
       H -1.4830409262989315E+001  8.5527891699031251E+000  1.3758882335138104E+001
       H -1.6281630891215730E+001  8.3514865241555771E+000  1.3462010228102763E+001
       O -1.5500733216076490E+001  7.8733932461606004E+000  1.3668653091911112E+001
       H  1.5688453206276978E+000  5.8423551036408981E+000  6.9294411743330802E+000
       H  1.7753844022020742E+000  5.6266352141678526E+000  8.4772414156371294E+000
       O  1.8517846682512091E+000  5.1405592800596702E+000  7.5862234750221047E+000
       H -8.8954659846568500E+000 -1.5542622033803664E+001  1.6793246014221044E+001
       H -9.9968686580700421E+000 -1.6508001431883052E+001  1.6580176064381735E+001
       O -9.2274271146640654E+000 -1.6163419156170999E+001  1.6088501805031513E+001
       H  2.5755990513804090E+001  1.0463150551863476E+001 -9.3067212698057289E-001
       H  2.6730445366007615E+001  1.1700446337733419E+001 -1.5757708486560755E+000
       O  2.6258928314371030E+001  1.0790143840095944E+001 -1.7856524748910649E+000
       H  1.2281125034501283E+001 -2.3836611775950649E+000  2.5945818578414613E+001
       H  1.3089920557399067E+001 -2.5048821467054179E+000  2.4633359439852057E+001
       O  1.2719061679818729E+001 -3.0283749490332963E+000  2.5321036533351226E+001
       H -7.1286981734185648E+000  1.0857260044984052E+001  4.1757037092726973E-001
       H -7.0270292970974060E+000  9.6608285344036613E+000 -5.0695595702236529E-001
       O -6.9291870693706770E+000  1.0625405313801062E+001 -5.4203277269121619E-001
       H  4.7737348687437171E+000  6.7557019755227694E+000  1.9067442238922463E+000
       H  3.4982772025833602E+000  6.9149671998186832E+000  2.1369294132761807E+000
       O  4.0077879843493802E+000  6.5799820957191200E+000  1.3360915532231907E+000
       H  7.5438844007686379E-001 -1.9678226880714691E+000  4.4689259104716417E+000
       H  1.6567997747332948E+000 -1.1823103495074996E+000  3.3031435717270137E+000
       O  1.3254776277174964E+000 -2.0501611222532459E+000  3.7452980053801572E+000
       H -4.2104378850885871E+000  2.2541418434096595E+001 -3.2683829225156411E+000
       H -2.7746814848051988E+000  2.2124443807583784E+001 -2.8446595281909626E+000
       O -3.5063472124364155E+000  2.1762372503744896E+001 -3.3027904774702637E+000
       H  2.1703898507369427E+001  2.8479424851632441E+001  1.0399829283480967E+001
       H  2.2194247541400483E+001  2.7014339258140900E+001  1.0116714992558791E+001
       O  2.1397780186835906E+001  2.7638705572739550E+001  9.9276585260271588E+000
       H  2.3995922558187504E+000 -1.9055039310493704E+001 -6.5326703637117891E+000
       H  1.2226679844691635E+000 -1.8503236715796806E+001 -7.4058648927786166E+000
       O  1.9871588319759548E+000 -1.8289990412241945E+001 -6.8484471673033651E+000
       H  1.0725617749071869E+001  4.5402937045820853E+000  1.0070042945687728E+001
       H  9.3530919640732186E+000  4.4465964810013752E+000  9.2933630730497097E+000
       O  9.7606271162313512E+000  4.5555952635626982E+000  1.0149851605771339E+001
       H  1.0704664215408192E+001  1.8829702778692198E+001 -1.9307680744700608E+001
       H  1.0575824981842366E+001  1.9293783512647966E+001 -1.7833167453523448E+001
       O  1.0355560228140785E+001  1.9551119752045381E+001 -1.8782518979710847E+001
       H  1.5050297042443766E+001 -6.8897245365335742E+000 -1.4321100645350706E+001
       H  1.5554692619104740E+001 -5.6535387422751011E+000 -1.5120692990591792E+001
       O  1.4874273139554594E+001 -6.3815982337523787E+000 -1.5143375534841633E+001
       H  1.3680742769315263E+001 -3.1371337473412915E+000  2.9332160116035833E+001
       H  1.4496697836732011E+001 -3.2676473294712105E+000  2.8083931438427310E+001
       O  1.3570914660534875E+001 -3.1393945767464864E+000  2.8304066202438534E+001
       H  2.2602606257221314E+001  4.2708083595147652E+000  1.5399921475904103E+001
       H  2.1560541507163112E+001  4.6950170885879139E+000  1.6537439299909686E+001
       O  2.1827571076554854E+001  3.9255700325485225E+000  1.5934283452308911E+001
       H  1.4328513762018787E+001  2.1560420931277509E+001  1.1375758634371810E+001
       H  1.4236679452750826E+001  2.2672723180867102E+001  1.2503072247281800E+001
       O  1.4257692235342686E+001  2.2534649226265479E+001  1.1571793830494679E+001
       H  3.1135009827700633E+000  4.4305351857183473E+000  5.4942699551616743E+000
       H  2.7491306145822616E+000  4.2432146232068346E+000  3.9923122824405755E+000
       O  3.4528296567193135E+000  4.6268782848673276E+000  4.5747557799191263E+000
       H  1.6771997378172475E+001  2.2094179607337374E+001 -7.6460933368737027E+000
       H  1.7969395550296433E+001  2.1416007664255002E+001 -7.0205720764849273E+000
       O  1.7743596410154119E+001  2.2213968568644727E+001 -7.5522630646968185E+000
       H  3.8867825064540305E+000  3.4812933804029534E+001  1.4117205827296893E+001
       H  4.0692878404698112E+000  3.6354241666516259E+001  1.4181643385511764E+001
       O  3.9227143315614761E+000  3.5540203195189036E+001  1.4815075963724448E+001
       H  1.1694578306023585E+001  1.2072571564101748E+000  1.2970666567330353E+001
       H  1.1234226976789925E+001  1.4542693567713345E+000  1.1548572436813441E+001
       O  1.0929829121471593E+001  1.5454603779052947E+000  1.2516210627371509E+001
       H  1.3194290796809232E+001  1.7410788359807178E+001 -1.8648783598639806E+001
       H  1.3068465179741478E+001  1.7286213998867282E+001 -1.7052787231464134E+001
       O  1.2580325933531661E+001  1.7166686743888132E+001 -1.7934759299406966E+001
       H -9.1257258776120338E+000  1.4115027383519903E+001  5.6817648606224243E+000
       H -7.9142298729108145E+000  1.5031312939232086E+001  5.9486578738641729E+000
       O -8.8989654148798358E+000  1.4961727198367749E+001  5.9832124948786358E+000
       H  9.2318486079350901E+000  3.4955889491072000E+001  1.4278923235811680E+001
       H  9.1113972769311804E+000  3.6458188166751349E+001  1.4690356578758790E+001
       O  9.1314480391310546E+000  3.5532257767722257E+001  1.5046212464421941E+001
       H  6.7509370638217314E+000  7.1576910221609671E+000  1.5105624026115640E+001
       H  5.3533843007787523E+000  7.2918026221116081E+000  1.5385105108008727E+001
       O  6.0293839127424551E+000  6.5654294061030249E+000  1.5236077922009855E+001
       H -8.3288893293389588E-001  1.9654216234862723E+001 -5.4493572773326093E-001
       H -1.6002134532492467E+000  1.9012076411397260E+001  7.5267978638916810E-001
       O -9.3997486611318881E-001  1.9608209390473309E+001  4.3133761478094163E-001
       H -4.5073009117241813E+000  1.6603573124505463E+001  2.3381069094648456E+001
       H -4.4804296276937716E+000  1.7962261922880522E+001  2.3850287765347712E+001
       O -5.0081422564740814E+000  1.7382097574481950E+001  2.3286468862263565E+001
       H  1.8073075077011850E+001 -5.0681231359556855E-001  5.7352158668104467E+000
       H  1.8972274941875966E+001 -1.4392030982726962E+000  6.5649070110888292E+000
       O  1.8645928184960919E+001 -1.2980387583898230E+000  5.6597639866837044E+000
       H -3.1953584608706933E+001  7.3507588120763838E+000  2.3446172576198123E+001
       H -3.2883742679261026E+001  6.1360487231923955E+000  2.3253915206088120E+001
       O -3.2222433379824707E+001  6.6556372749343504E+000  2.2842673802874991E+001
       H  1.1328489475102522E+001  8.8548902667811031E+000  1.2987268806613926E+001
       H  1.0339611660076036E+001  9.3159193290664195E+000  1.3986443220883551E+001
       O  1.0365199438895610E+001  8.7797217160953185E+000  1.3193025405814161E+001
       H  1.7667513275396008E+001 -1.7029878009075809E+001  2.5700407200348419E+001
       H  1.7194093037121643E+001 -1.7640509522506086E+001  2.7043873715528822E+001
       O  1.7807391346757743E+001 -1.7817418217263693E+001  2.6207378086669127E+001
       H -1.0483427474993708E-001  1.5463317899026704E+001 -5.1056151459208214E+000
       H  1.4281211037297176E-001  1.6993717414587717E+001 -5.1555048676671378E+000
       O  5.6139312475650884E-002  1.6218452652304720E+001 -5.7258188163585721E+000
       H  1.8532932992664637E+001  1.0179678051574538E+001  1.4912779880541226E+001
       H  1.9518693677762393E+001  1.0884670289614276E+001  1.5672869362559682E+001
       O  1.8627228875592504E+001  1.0974083928745099E+001  1.5456097506295963E+001
       H  3.5936306160602518E+000  1.0424664976342129E+001  2.6378962781982683E+001
       H  3.6509584526543506E+000  8.8631471744378647E+000  2.6496595266667100E+001
       O  3.1603809897302209E+000  9.6227875479141396E+000  2.6025341264798822E+001
       H  2.6262734825451606E+000 -6.9291149360922555E+000 -2.0464100968580339E+000
       H  2.5081688030526932E+000 -6.9545762872201937E+000 -5.7095625270408135E-001
       O  2.0614813946066959E+000 -7.3403433073199160E+000 -1.3265122820697970E+000
       H  2.1615607609934520E+000  8.7436489683049370E+000  1.6128284914748175E+001
       H  2.4303829072693399E+000  9.7379366825383968E+000  1.7182985447079890E+001
       O  2.8778702564420464E+000  8.9754106559161624E+000  1.6799502202203055E+001
       H  7.5203745699203726E+000  2.3682257850193913E+001  3.1548167483869634E+001
       H  8.0122387627949738E+000  2.3070749217863231E+001  3.2713406623995581E+001
       O  7.5127133458981756E+000  2.2830710197309166E+001  3.1958750920332889E+001
       H  8.6932318523440593E+000  3.3197043780396683E+001 -1.9853278980148659E+000
       H  9.5606476006168197E+000  3.2241425122984118E+001 -1.2281338730506330E+000
       O  8.6637773873981700E+000  3.2309923347304917E+001 -1.6259051216751410E+000
       H  4.7956472697571800E-001  1.0436175041307587E+001  1.2476715140152685E+001
       H  3.0796831541877057E-001  1.1977641652788567E+001  1.2392745977507712E+001
       O  5.9401131487324721E-001  1.1286316515679475E+001  1.3032523525119853E+001
       H  1.4672852632971429E+001  1.1581552599098719E+001 -1.7794708192804507E+001
       H  1.4967617443495856E+001  1.0900093881470371E+001 -1.9190156368756821E+001
       O  1.5371776362247731E+001  1.1237512714160923E+001 -1.8397265614048202E+001
       H  1.2595556699740738E+001 -1.1402520818252369E+000  1.6188554847320972E+001
       H  1.1344871562949278E+001 -2.1139435993116291E+000  1.6189237471756027E+001
       O  1.1942863019198338E+001 -1.5942410556994275E+000  1.6765515763204739E+001
       H  1.3998370718899968E+001  5.6649532312912791E+000  2.0254767027728505E+001
       H  1.3991886689558910E+001  6.6975664163799991E+000  2.1355209575016943E+001
       O  1.4539040280626722E+001  6.2894119897885732E+000  2.0677357319077281E+001
       H  2.9052598137130101E+001 -1.9858952818600479E+000  2.3018565878831851E+001
       H  3.0422776399035889E+001 -1.2032357114285008E+000  2.3338063998700665E+001
       O  2.9534839632653394E+001 -1.1708397244857771E+000  2.3074439354863088E+001
       H  2.0146717912365705E+001  1.5999188079454829E+001  1.6142227999003165E+001
       H  2.1152333679659655E+001  1.5191067836257931E+001  1.6884295279542673E+001
       O  2.0635871837100176E+001  1.5167329625338009E+001  1.6042166303855311E+001
       H  1.0783685151068369E+001  4.8610792181662559E+000 -5.4242962169382807E+000
       H  9.7712390171742083E+000  4.6069986281652380E+000 -6.5702023460955408E+000
       O  1.0327401334683971E+001  5.2737276708626046E+000 -6.1781500052613438E+000
       H -2.6023162134722408E+000  1.2551898569924640E+001 -4.9010819909975769E+000
       H -2.3158642819764799E+000  1.2402990816627943E+001 -6.4503023575832827E+000
       O -3.0071488582716324E+000  1.2283404675219344E+001 -5.8288286468708952E+000
       H  8.9980486281347432E+000  7.3161069456304419E+000  1.1686919064089755E+001
       H  8.5790598979681132E+000  6.2578399344004314E+000  1.0776137318338943E+001
       O  8.4518224218063907E+000  7.2094725422431249E+000  1.0893422480142050E+001
       H -1.5093496622051932E+001 -3.6921525900939396E+000  2.6024224766560331E+000
       H -1.6064224167868502E+001 -2.7497061422156701E+000  3.3993592648369968E+000
       O -1.5441206644385151E+001 -3.4562402718772862E+000  3.5121887953948576E+000
       H  7.8349154141179411E-001  7.9588414095242737E+000 -7.4474070713286977E+000
       H  4.1894158483015648E-001  7.8178792995372861E+000 -5.8249101878859522E+000
       O  2.8752098205250243E-001  8.3195832336455329E+000 -6.6813047638366196E+000
       H  1.3660047968285149E+001  9.4535506373732527E+000  6.9111128043362271E+000
       H  1.3859418013813425E+001  9.8343504761398588E+000  8.4169099404167209E+000
       O  1.4303611457465022E+001  9.4409246468003243E+000  7.6837814957633448E+000
       H  3.2293285298722485E+000  1.0547807981985461E+001  1.1404818402563401E+000
       H  2.9259675224535480E+000  1.1856523381863520E+001  1.9608896700904124E+000
       O  3.4192979847047589E+000  1.1483579357392284E+001  1.1535622817876319E+000
       H  1.3631230983642933E+001  1.3579794915174872E+001 -6.6044144407944687E+000
       H  1.4783564610732842E+001  1.3756173169282233E+001 -5.7748940990658229E+000
       O  1.4131978817319657E+001  1.4381899060990918E+001 -6.2221879387647849E+000
       H  1.3380234433835247E+001  1.8205239601640319E+001  1.3451488091786493E+001
       H  1.3779261409323754E+001  1.9477201607217250E+001  1.4313503109705930E+001
       O  1.3202052616941682E+001  1.9150145307740498E+001  1.3661516485606445E+001
       H  6.2260966692971795E+000 -5.1814496993676462E+000 -1.2924095106395903E+001
       H  6.0143363970060113E+000 -5.6743176593442088E+000 -1.1427525230202054E+001
       O  5.5830134676751237E+000 -5.1877939553531842E+000 -1.2196583760614040E+001
       H  8.1917733019213905E+000  1.0693834657264274E+001  5.1495128346183847E+000
       H  7.7304722638822589E+000  1.0363657020113065E+001  3.6431967110335024E+000
       O  8.1076359369005591E+000  9.9793608818337773E+000  4.5074467394869142E+000
       H  1.2056514525382457E+001  8.1414795500332566E+000  9.6505083963168747E+000
       H  1.1093938019749249E+001  8.5307336486861018E+000  1.0737455341794156E+001
       O  1.1997696799506652E+001  8.8263138298404531E+000  1.0361086603282132E+001
       H  3.3653633282749656E-001 -1.8551344417142399E-001 -9.3434937510638552E+000
       H -1.2963961207151734E-001  1.4018227508577747E+000 -9.4685602409775598E+000
       O  4.6220290041774859E-002  6.3608386843153542E-001 -8.9547190594135895E+000
       H  2.4271992345429001E+000  1.4129122066714368E+001  4.6811769889098942E+000
       H  2.0948825643155904E+000  1.2971667166723446E+001  5.6710517175048629E+000
       O  1.7757440170434724E+000  1.3788417696317538E+001  5.3178045776869913E+000
       H -6.8493796285215964E+000 -6.6480594760532590E+000  1.5915108027658764E+001
       H -5.5895285450561571E+000 -5.8870881757793772E+000  1.5983408907200205E+001
       O -6.4743052935872498E+000 -5.8088641530727081E+000  1.5682887473904307E+001
       H  1.7616506846290637E+001  1.7302267121655257E+000  1.4726049499448020E+001
       H  1.8980513668527191E+001  1.1110532717587058E+000  1.4224180796440644E+001
       O  1.8171146979185842E+001  1.6048603476356846E+000  1.3901688639628947E+001
       H  1.6299803039271179E+001 -4.5089246926628253E+000  2.8574480323697440E+001
       H  1.5929732160398091E+001 -4.1842100128249005E+000  3.0164687796333482E+001
       O  1.6255456289642460E+001 -3.8211694712871860E+000  2.9298492190697392E+001
       H  1.9297968187371417E+001  1.1158367057635996E+000  2.0726486956807754E+001
       H  1.8710685072839077E+001  1.1047476077778948E+000  2.2151320325489387E+001
       O  1.9612315087307351E+001  1.2673906720874439E+000  2.1649802959008607E+001
       H  9.5875694126016988E+000  7.0309758133628630E-001 -3.7753684829644336E+000
       H  9.5367856935286976E+000  8.3983530216815916E-001 -5.2684102136065247E+000
       O  9.2750826112486138E+000  2.2203961692616944E-001 -4.6113493702101023E+000
       H  8.8311028877860718E+000 -6.4887403833906347E+000 -3.7720777546750179E+000
       H  7.5084093773995439E+000 -6.7188639903400933E+000 -4.5151683730632985E+000
       O  8.4208987526748604E+000 -6.5452245489934571E+000 -4.7221669801585007E+000
       H  3.5362125897746907E+001  1.6373659431875922E+001  1.4915892053758020E+001
       H  3.6346232453902111E+001  1.6893287654592925E+001  1.6126343629371178E+001
       O  3.5461412054466841E+001  1.6366146989116029E+001  1.5864507414010196E+001
       H  1.8234141494966245E+001  1.0237989993770810E+001  6.6359145146045586E+000
       H  1.9204607742907147E+001  9.5332680530304685E+000  7.4806824887104391E+000
       O  1.8473030424264728E+001  1.0206331673255717E+001  7.5979083876751643E+000
       H  9.2250060245344372E+000 -5.0645034147887067E+000  8.6999510704415641E+000
       H  8.2256708476289138E+000 -5.8765023932663789E+000  9.5313041798665949E+000
       O  9.1559462899033424E+000 -5.9210466027933881E+000  9.2191088353279120E+000
       H -2.2741278097329247E+000  4.2545996543699598E+000  6.0583976725169144E+000
       H -1.5130408513617015E+000  4.0400091298883742E+000  4.7009601447636191E+000
       O -2.2247519217187817E+000  3.6899744112387145E+000  5.2337907903184231E+000
       H  1.3255250133114707E+001 -1.2203525660704175E+001 -4.0160527380079083E+000
       H  1.3007149694400900E+001 -1.3499833430693656E+001 -3.2020526510389606E+000
       O  1.3226892628021572E+001 -1.3168720901535430E+001 -4.0820229315208794E+000
       H  2.1328436444364673E+001 -1.2158522297607532E+000  4.4988094997736061E-001
       H  1.9875091843180286E+001 -1.1944584858199720E+000 -2.6991704692357649E-001