 # Version information for this restart file 
 # current date 2025-03-29 18:12:01.074
 # current working dir /ccc/scratch/cont003/gen2309/sicilana/NPT/128_H2O_4_NaCl_10_wt_673K_1000bar/BATCH_10_MD_T_673_P_1000_steps_1000_dt_0.5_NH2O_128_NaCl_4_abc_17.19_17.19_17.19_wt_9.20
 # Program compiled at                                       2024-10-31 15:04:21
 # Program compiled on                                                 topaze131
 # Program compiled for                                                   x86_64
 # Source code revision number                                                  
 &GLOBAL
   PRINT_LEVEL LOW
   PROJECT_NAME "brines"
   RUN_TYPE MD
   FLUSH_SHOULD_FLUSH T
 &END GLOBAL
 &MOTION
   &MD
     ENSEMBLE NPT_I
     STEPS 1000
     TIMESTEP  4.9999999999999994E-001
     STEP_START_VAL 25500
     TIME_START_VAL  1.2750000000007267E+004
     ECONS_START_VAL -2.4590398713531335E+003
     TEMPERATURE  6.7300000000000011E+002
     &BAROSTAT
       PRESSURE  1.0000000000000000E+003
       TIMECON  9.9999999999999986E+001
       &VELOCITY
           4.6088968452589917E-006
       &END VELOCITY
       &MASS
           4.2836593343398705E+007
       &END MASS
       &THERMOSTAT
         TYPE CSVR
         &CSVR
           TIMECON  4.8377686530095694E+001
           &THERMOSTAT_ENERGY
              -7.9802194772162849E-004
           &END THERMOSTAT_ENERGY
           &RNG_INIT
 Wiener process for Thermostat # 1        1 F T F   9.7917460363263975E-01        3234180635.0        3666055234.0        2382528597.0          77131701.0        4257288055.0        1992979228.0             12345.0             12345.0             12345.0             12345.0             12345.0             12345.0             12345.0             12345.0             12345.0             12345.0             12345.0             12345.0
           &END RNG_INIT
         &END CSVR
       &END THERMOSTAT
     &END BAROSTAT
     &THERMOSTAT
       TYPE CSVR
       &CSVR
         TIMECON  4.9999999999999994E+002
         &THERMOSTAT_ENERGY
            -7.7220780697795699E-001
         &END THERMOSTAT_ENERGY
         &RNG_INIT
 Wiener process for Thermostat # 1        1 F T F  -1.0412135864788523E+00        1327596862.0        3784249091.0        3249583953.0         278083391.0        3274023185.0        3141117677.0             12345.0             12345.0             12345.0             12345.0             12345.0             12345.0             12345.0             12345.0             12345.0             12345.0             12345.0             12345.0
         &END RNG_INIT
       &END CSVR
     &END THERMOSTAT
     &AVERAGES T
       &RESTART_AVERAGES
         ITIMES_START 1
         AVECPU  2.2867072905334460E+001
         AVEHUGONIOT  0.0000000000000000E+000
         AVETEMP_BARO  3.0046111321326316E+002
         AVEPOT -2.4597086255642271E+003
         AVEKIN  1.2251065926423870E+000
         AVETEMP  6.5960375607028936E+002
         AVEKIN_QM  0.0000000000000000E+000
         AVETEMP_QM  0.0000000000000000E+000
         AVEVOL  3.8314754321216562E+004
         AVECELL_A  3.3639945964635011E+001
         AVECELL_B  3.3639945964635011E+001
         AVECELL_C  3.3639945964635011E+001
         AVEALPHA  9.0000000000000000E+001
         AVEBETA  9.0000000000000000E+001
         AVEGAMMA  9.0000000000000000E+001
         AVE_ECONS -1.2361930660277362E+002
         AVE_PRESS  3.7278199525978562E+002
         AVE_PXX  3.3964028186247316E+002
       &END RESTART_AVERAGES
     &END AVERAGES
   &END MD
   &PRINT
     &TRAJECTORY SILENT
       FILENAME =brines-1.xyz
       &EACH
         MD 1
       &END EACH
     &END TRAJECTORY
     &CELL SILENT
       FILENAME =brines-1.cell_xyz
       &EACH
         MD 1
       &END EACH
     &END CELL
     &VELOCITIES SILENT
       FILENAME =brines-1.vel
       &EACH
         MD 1
       &END EACH
     &END VELOCITIES
     &FORCES SILENT
       FILENAME =brines-1.force
       &EACH
         MD 1
       &END EACH
     &END FORCES
     &STRESS SILENT
       FILENAME =brines-1.stress
       &EACH
         MD 1
       &END EACH
     &END STRESS
     &RESTART SILENT
       FILENAME =brines-1.restart
       &EACH
         MD 1
       &END EACH
     &END RESTART
     &RESTART_HISTORY SILENT
       &EACH
         MD 50
       &END EACH
     &END RESTART_HISTORY
   &END PRINT
 &END MOTION
 &FORCE_EVAL
   METHOD QS
   STRESS_TENSOR ANALYTICAL
   &DFT
     BASIS_SET_FILE_NAME /ccc/work/cont003/gen2309/sicilana/DATA_CP2K/GTH_BASIS_SETS
     POTENTIAL_FILE_NAME /ccc/work/cont003/gen2309/sicilana/DATA_CP2K/GTH_POTENTIALS
     &SCF
       MAX_SCF 50
       EPS_SCF  9.9999999999999995E-008
       &OT T
         MINIMIZER DIIS
         PRECONDITIONER FULL_SINGLE_INVERSE
       &END OT
       &OUTER_SCF T
         EPS_SCF  9.9999999999999995E-008
         MAX_SCF 50
       &END OUTER_SCF
     &END SCF
     &QS
       EPS_DEFAULT  1.0000000000000000E-014
       EPSFIT  1.0000000000000000E-004
       EPSISO  9.9999999999999998E-013
       EPSRHO0  9.9999999999999995E-007
       QUADRATURE GC_LOG
       EXTRAPOLATION ASPC
       METHOD GAPW
     &END QS
     &MGRID
       NGRIDS 4
       CUTOFF  5.0000000000000000E+002
       REL_CUTOFF  6.0000000000000000E+001
     &END MGRID
     &XC
       DENSITY_CUTOFF  1.0000000000000000E-010
       GRADIENT_CUTOFF  1.0000000000000000E-010
       TAU_CUTOFF  1.0000000000000000E-010
       &XC_FUNCTIONAL NO_SHORTCUT
         &PBE T
           PARAMETRIZATION REVPBE
         &END PBE
       &END XC_FUNCTIONAL
       &VDW_POTENTIAL
         POTENTIAL_TYPE PAIR_POTENTIAL
         &PAIR_POTENTIAL
           TYPE DFTD3
           PARAMETER_FILE_NAME /ccc/work/cont003/gen2309/sicilana/DATA_CP2K/dftd3.dat
           REFERENCE_FUNCTIONAL "PBE"
           CALCULATE_C9_TERM T
           REFERENCE_C9_TERM T
           VERBOSE_OUTPUT T
           D3_EXCLUDE_KIND 3
         &END PAIR_POTENTIAL
       &END VDW_POTENTIAL
     &END XC
     &REAL_TIME_PROPAGATION
       INITIAL_WFN RT_RESTART
     &END REAL_TIME_PROPAGATION
     &PRINT
       &MO_CUBES SILENT
         WRITE_CUBE F
         NLUMO 10
         NHOMO 2
         &EACH
           MD 200
         &END EACH
       &END MO_CUBES
     &END PRINT
   &END DFT
   &SUBSYS
     &CELL
       A  1.8829063834933791E+001  0.0000000000000000E+000  0.0000000000000000E+000
       B  0.0000000000000000E+000  1.8829063834933791E+001  0.0000000000000000E+000
       C  0.0000000000000000E+000  0.0000000000000000E+000  1.8829063834933791E+001
       MULTIPLE_UNIT_CELL 1 1 1
     &END CELL
     &COORD
       H  9.1802833634208110E+000  2.3156968013539100E+001 -1.2880771540166952E-001
       H  8.7059485989480443E+000  2.2805092372827517E+001  1.1344398245725233E+000
       O  9.5534683190340708E+000  2.3087689254769121E+001  8.0863930895090874E-001
       H  9.3787638909842226E+000 -6.3855197571773727E+000  1.7474094468229671E+000
       H  9.2731681521642049E+000 -7.8932289267763585E+000  1.5549370475246838E+000
       O  8.7347169965513984E+000 -7.1326145170163482E+000  1.8166439781445713E+000
       H -1.0500573148308037E+001  4.6734932966280063E+001  4.7156456637623265E+001
       H -9.7183956046483821E+000  4.7587391596936790E+001  4.6172651349360315E+001
       O -1.0622471343700383E+001  4.7567184441119707E+001  4.6654546385231335E+001
       H  8.4484101620998793E+000  2.2633964710897878E+001  2.5409048944579563E+001
       H  7.6204677785670878E+000  2.3806118290880779E+001  2.6185575489237092E+001
       O  8.4440654826841754E+000  2.3228190878581032E+001  2.6208712186873630E+001
       H -8.2242105002925960E+000  6.6571879045028668E+000  6.5427622802184393E+000
       H -7.9191095393674056E+000  5.8502788217403419E+000  7.8457652804100091E+000
       O -7.4771870577644499E+000  6.3547273488277725E+000  7.1044646002309859E+000
       H  3.3611997800240651E+001  2.5726758916765583E+001 -6.7266396426303992E+000
       H  3.2095003026609504E+001  2.6005448266723366E+001 -7.2155240638890250E+000
       O  3.2866142231994665E+001  2.6387018415283254E+001 -6.7371179730383224E+000
       H -5.0236219058210443E+000  4.7024148254430518E+000  8.3974382635489651E+000
       H -5.4449388305919948E+000  3.7232268501762036E+000  9.4182394107565113E+000
       O -5.6466635933926224E+000  3.9798622745454937E+000  8.5381255857903273E+000
       H  2.4748305177253503E+001  4.0190967408912019E+000  1.4990025278203005E+000
       H  2.5100685501723504E+001  4.3986694549277168E+000  2.4338443293593587E-001
       O  2.5396284059337948E+001  3.7147820282025963E+000  8.4036698039530910E-001
       H  2.1126385690351974E+001  1.4437133654728557E+001  1.4670194398088853E+001
       H  2.0844685165881593E+001  1.3067227689843671E+001  1.3937365323525041E+001
       O  2.1531312307986695E+001  1.3844165098924515E+001  1.3864223798280422E+001
       H  2.2470454787786707E+001  2.6424430643071005E-002  2.1011017138461415E+001
       H  2.3651451104800866E+001 -6.5574866505977347E-001  2.0560125421773559E+001
       O  2.2730984625938376E+001 -4.9990696516072930E-001  2.0329700354389420E+001
       H  9.8921462779933655E+000 -1.3393553451207632E+000 -7.3433200592402859E+000
       H  8.7486346000828252E+000 -2.1070163972111624E+000 -7.3542593965899483E+000
       O  9.1436591089505708E+000 -1.3702750193132667E+000 -7.8462596619491576E+000
       H  1.1865084728478182E+001  2.3344468735837127E+000  1.9953522495953091E+001
       H  1.1407755451706009E+001  3.5274018352884204E+000  2.0625564024399239E+001
       O  1.2188911899064944E+001  2.9461405781548384E+000  2.0588839907725021E+001
       H  1.6048834824232664E+001  1.5618638473024752E+001  6.0624637142251592E+000
       H  1.7169432510029583E+001  1.6064936235634111E+001  5.2671169670907130E+000
       O  1.6232662819830654E+001  1.5849611300863806E+001  5.1554833245643596E+000
       H  5.0749872744478068E+000 -1.0730521969491576E+001  2.7327924369890239E-001
       H  4.4785660320056166E+000 -1.0242634071418113E+001 -1.0147633773884637E+000
       O  5.3211102869433766E+000 -1.0279411535719413E+001 -5.7900020442962952E-001
       H  3.0551505684122919E+001  3.3590996911929651E+001 -6.6487258806247299E-002
       H  3.0367461420102018E+001  3.2472917546981982E+001 -1.2352386617688427E+000
       O  3.0574929726836814E+001  3.2630447517259356E+001 -2.3449277136389340E-001
       H  1.3811868178216397E+001  2.5965928078044420E-001 -9.3409940078486091E+000
       H  1.2892310069302475E+001  1.3642657257537698E+000 -9.9671544121338442E+000
       O  1.3046484608659044E+001  7.8207482931529981E-001 -9.1623664764114814E+000
       H  2.1292290305670949E+001  1.0800622015901171E+000  6.2395093295073929E+000
       H  2.0227568612774867E+001  1.6151340189222672E+000  5.3318687128650319E+000
       O  2.1213628486743051E+001  1.5678400403777997E+000  5.4241410143143582E+000
       H  8.0577123791541769E+000 -2.7372849214033925E+000  1.6836588106043774E+001
       H  8.2706531952035505E+000 -1.9518174129141044E+000  1.8162540980939003E+001
       O  7.8724872053681461E+000 -2.7235438973463713E+000  1.7750555561701528E+001
       H  4.9391907056311188E+000  1.7586764535212922E+001  8.0503065225935302E+000
       H  5.2134962433337986E+000  1.6293067914985432E+001  8.6227520872888856E+000
       O  4.6525534840851615E+000  1.6689894486959702E+001  7.9397513642840076E+000
       H  1.9920995508204438E+001  2.6828220276735596E+001  4.2069533657253393E+000
       H  2.1232009194425327E+001  2.5904933012277596E+001  4.1498063746683949E+000
       O  2.0687685707376986E+001  2.6496971447551431E+001  3.6089151749741575E+000
       H  1.5524369427908562E+001  7.7614863997269188E+000  2.0879554619345488E+001
       H  1.5613384328148637E+001  9.2860358759152781E+000  2.0365971455028735E+001
       O  1.5885118331914938E+001  8.7031551884221177E+000  2.1066118614123624E+001
       H  8.7127442530320547E+000 -1.2419131003675444E+001  1.6624930299207989E+001
       H  7.3595904507408143E+000 -1.2949080814337822E+001  1.7134943907785480E+001
       O  8.3135603716035060E+000 -1.3167416041128687E+001  1.7201881128890161E+001
       H  2.9137487277111482E+001  1.1134214620109221E+001  2.4058536023681903E+001
       H  2.9500547004682119E+001  1.1798499726159951E+001  2.2744196534249753E+001
       O  2.9133106915869654E+001  1.1989201538161890E+001  2.3641175692765749E+001
       H -1.4332279786492398E+001  8.0650333443228739E+000  1.3077386185316472E+001
       H -1.5876727785570315E+001  8.2777835218753690E+000  1.2619964626894003E+001
       O -1.5277768744370192E+001  7.9029970610317966E+000  1.3323058733870299E+001
       H  1.6632121212632254E+000  5.6447788559719179E+000  7.1032107790175116E+000
       H  9.8527718590342683E-001  4.6345067821455039E+000  8.0567405315776845E+000
       O  1.8428765711839405E+000  5.0957892283522472E+000  7.8583146855971302E+000
       H -9.3473624908898660E+000 -1.5437468254750549E+001  1.6329415004955269E+001
       H -1.0018144444457874E+001 -1.6550101597723927E+001  1.5418624357848122E+001
       O -9.2221412672020087E+000 -1.6257185789389951E+001  1.5856209424004820E+001
       H  2.5170010932937455E+001  1.0485093488061112E+001 -1.1849850763002017E+000
       H  2.6076508486246230E+001  1.1588719989205181E+001 -1.6659253898072353E+000
       O  2.5847302905577642E+001  1.0710763051265388E+001 -1.8048529603841608E+000
       H  1.2080063612088283E+001 -2.2415067843507588E+000  2.5724903581203559E+001
       H  1.3096873546372015E+001 -2.4846280016863425E+000  2.4493007163698682E+001
       O  1.2589683419762665E+001 -2.9073021381065325E+000  2.5251639063839249E+001
       H -7.3633643967376647E+000  1.1315259164259190E+001  3.7474479500333627E-002
       H -7.2504825923460734E+000  9.8906155913717306E+000  4.0495707518506091E-001
       O -6.8646219102534092E+000  1.0522317893640023E+001 -1.8970697485157284E-001
       H  4.3161107780235204E+000  6.8178208418117752E+000  2.2538181007628895E+000
       H  3.3585904512222857E+000  7.6493306151751934E+000  1.5968433441376915E+000
       O  3.8594921718655049E+000  6.8490169752240790E+000  1.3713184198813881E+000
       H  6.0786918026316816E-001 -1.7210247197636928E+000  4.4623619156977847E+000
       H  1.6800831572166877E+000 -1.0803012645140779E+000  3.3339063521602217E+000
       O  1.2995658308045228E+000 -1.9994735663345053E+000  3.6945044838640220E+000
       H -4.4450432565262483E+000  2.1766835079193605E+001 -3.0255506661943716E+000
       H -3.1848476888964785E+000  2.2520587634021854E+001 -2.9169908721715050E+000
       O -3.4754174222777747E+000  2.1619899702353202E+001 -3.1305334445805979E+000
       H  2.1392647137955411E+001  2.8089874959103344E+001  9.9708604741937741E+000
       H  2.1583361257595531E+001  2.6540215791656145E+001  1.0154219983439317E+001
       O  2.1077608112552486E+001  2.7276710422161106E+001  9.6086063636222843E+000
       H  2.6426523415340211E+000 -1.8459294718739979E+001 -7.3502428312203536E+000
       H  1.5354775245768209E+000 -1.7446314074121386E+001 -7.5192929468838070E+000
       O  2.0180160276828181E+000 -1.7938140556678572E+001 -6.7498443988540844E+000
       H  1.0765973614729036E+001  4.8482009212974084E+000  1.0192911287299577E+001
       H  1.0099642163659654E+001  4.0091555500818030E+000  9.1994928348649641E+000
       O  9.9125860271683379E+000  4.5041597856626225E+000  1.0022126575023735E+001
       H  1.0726398047754920E+001  1.8773182166245583E+001 -1.8358463844938250E+001
       H  9.5399283343245944E+000  1.9447190590887896E+001 -1.7905869111752608E+001
       O  1.0148136326415692E+001  1.9470920214301909E+001 -1.8707877558750656E+001
       H  1.5064137768046347E+001 -6.8607632692405334E+000 -1.4286853213897638E+001
       H  1.5596838042710409E+001 -5.7991764415103244E+000 -1.5232856862877490E+001
       O  1.4700281602814085E+001 -6.1232305765392354E+000 -1.4841046252446302E+001
       H  1.3235841626653334E+001 -3.0974906708157821E+000  2.9060266494474465E+001
       H  1.4251983779942032E+001 -3.0950220802733108E+000  2.7998708890460961E+001
       O  1.3338046961747967E+001 -3.1111876121542208E+000  2.8070839627866381E+001
       H  2.2052505885376480E+001  4.0869078130717016E+000  1.4993422236348097E+001
       H  2.0891409681399420E+001  4.4636862515153632E+000  1.5979276130507023E+001
       O  2.1764218638992208E+001  3.9607147155509890E+000  1.5969023598078136E+001
       H  1.3818000135159178E+001  2.1488897243362182E+001  1.1476151945829132E+001
       H  1.4611880358940690E+001  2.2636950069045671E+001  1.2315154263955707E+001
       O  1.3864277781462571E+001  2.2460572451746351E+001  1.1725172553343022E+001
       H  3.1511440792731999E+000  4.2265423141939866E+000  5.5586922397136354E+000
       H  2.9364481758358267E+000  4.3874767622219526E+000  3.8942117821587048E+000
       O  3.4506913779220576E+000  4.6607703958725297E+000  4.6683056391628304E+000
       H  1.6867142273421660E+001  2.1738802419813144E+001 -7.7434161117189149E+000
       H  1.7667488325150469E+001  2.1762948155168935E+001 -6.4131150180835235E+000
       O  1.7663919063560080E+001  2.2148027936755309E+001 -7.3613043346702405E+000
       H  4.1505845838729378E+000  3.4479918220213655E+001  1.4110139692942543E+001
       H  4.3427394980800411E+000  3.5997605979284891E+001  1.4126900828265741E+001
       O  3.9887256949550660E+000  3.5327174462175115E+001  1.4644822605778980E+001
       H  1.1777021619457313E+001  1.3333060062746236E+000  1.2714450551365744E+001
       H  1.0587879111458365E+001  1.4637850263111800E+000  1.1615673151386540E+001
       O  1.0847503098693682E+001  1.6445208187042233E+000  1.2549753200496019E+001
       H  1.3292263016077076E+001  1.7200508508866733E+001 -1.8394001706548590E+001
       H  1.2694484885668498E+001  1.7192193544206980E+001 -1.6934390193489381E+001
       O  1.2491202403873165E+001  1.6980373853960316E+001 -1.7873718990152586E+001
       H -8.7004245686378496E+000  1.3767825315752660E+001  5.2822763187369492E+000
       H -7.7388701523850800E+000  1.5117052448842841E+001  5.8052886188870261E+000
       O -8.6673625861078865E+000  1.4675538615564818E+001  5.8444502446601510E+000
       H  9.2330174588359899E+000  3.4915524900127799E+001  1.4065189599005556E+001
       H  8.9620526593685401E+000  3.6156093998046543E+001  1.5020631159687827E+001
       O  8.7902839039410150E+000  3.5199918994537924E+001  1.4828904495147128E+001
       H  6.9488298070442518E+000  7.0078598779754850E+000  1.5091237900945769E+001
       H  5.6112952504144342E+000  7.0099514564400920E+000  1.5595773531174084E+001
       O  6.1504609705843079E+000  6.4949078653354295E+000  1.5010160856041413E+001
       H -6.3008433794184138E-001  1.9799159509379990E+001 -3.7953987400630590E-001
       H -1.7984902780769032E+000  1.9365817113338281E+001  2.4774589959245363E-001
       O -8.4570166199806096E-001  1.9293343396643202E+001  4.3795272449181144E-001
       H -4.0398604159045632E+000  1.6722960721608359E+001  2.2635035354773684E+001
       H -4.4350835093593659E+000  1.7910657283292142E+001  2.3535654602509144E+001
       O -4.9041682148236836E+000  1.7282861805284988E+001  2.2972297526123540E+001
       H  1.8139172827552020E+001 -4.0677222020400006E-001  5.9888502795712064E+000
       H  1.9002667123889406E+001 -1.5282710092256657E+000  6.5484165269014989E+000
       O  1.8349154165224530E+001 -1.3062819996436548E+000  5.8036842283667180E+000
       H -3.1519427734772339E+001  7.3676987347389895E+000  2.3310331210337857E+001
       H -3.2693693062391063E+001  6.3063345427741897E+000  2.3302201140268334E+001
       O -3.1957999240411649E+001  6.7445743576010928E+000  2.2731790051243795E+001
       H  1.1128703331950454E+001  9.3324641313053913E+000  1.3065028498970817E+001
       H  1.0603062010719697E+001  8.5304045127958865E+000  1.4171496269318459E+001
       O  1.0457661509333745E+001  8.6442274769710998E+000  1.3177513518097456E+001
       H  1.8006806287044689E+001 -1.6869597541149421E+001  2.5520239708116286E+001
       H  1.6805611215953732E+001 -1.7060997947987932E+001  2.6251914645451063E+001
       O  1.7519924844413172E+001 -1.7610445407516615E+001  2.5926077333320805E+001
       H  1.8112267197161017E-001  1.5443029575331598E+001 -4.9871100323300368E+000
       H  2.4268259162077441E-001  1.6973695505934554E+001 -5.1733668788802341E+000
       O  4.2709796770115077E-002  1.6151700366328622E+001 -5.6836121079136941E+000
       H  1.8445342046166513E+001  1.0378390116415648E+001  1.4593713738230404E+001
       H  1.9183869238103664E+001  1.1030251499479588E+001  1.5803240858034643E+001
       O  1.8302070011123515E+001  1.0880489011885869E+001  1.5384439337760853E+001
       H  3.9490010526236849E+000  1.0144865815124692E+001  2.5861572790648154E+001
       H  3.0475098429538012E+000  9.2199826377307019E+000  2.6784131491376744E+001
       O  3.1536594876194197E+000  9.6973881512919800E+000  2.5817885946880679E+001
       H  2.4117919295747288E+000 -7.0057323159201390E+000 -2.0849065734760717E+000
       H  2.7058480692033733E+000 -7.2250989484854129E+000 -4.1927369833633693E-001
       O  2.1147138822032012E+000 -7.4047237199984703E+000 -1.2241532379848030E+000
       H  3.2791459742374705E+000  9.1891797580512016E+000  1.5769212073941310E+001
       H  2.6204141727095558E+000  9.7630049028193344E+000  1.7158655088645833E+001
       O  2.9234905612246531E+000  8.8545091150538902E+000  1.6730677956845113E+001
       H  7.3681304692019678E+000  2.3670360430936178E+001  3.1498772355776424E+001
       H  7.9191746820955675E+000  2.2694888732846902E+001  3.2456553517849571E+001
       O  7.3343263747077998E+000  2.2705463192625814E+001  3.1695920458624247E+001
       H  7.9979165296045123E+000  3.2570560667017958E+001 -1.2501493911863482E+000
       H  9.5151201986220819E+000  3.2185813312519691E+001 -1.0992264404666747E+000
       O  8.6919495107838642E+000  3.1933984011348741E+001 -1.5821751871053862E+000
       H  7.6240367828992262E-001  1.0709355571327471E+001  1.2203117023017761E+001
       H  1.8199610295097812E-001  1.1928274018052694E+001  1.2616392514054404E+001
       O  8.1961366773928568E-001  1.1324757744036283E+001  1.2900535691325295E+001
       H  1.5057992713530219E+001  1.1716723186405760E+001 -1.7472372256935888E+001
       H  1.4270124724957256E+001  1.0769525804309422E+001 -1.8417402268860201E+001
       O  1.5156005586993178E+001  1.1149965999213752E+001 -1.8194734536890017E+001
       H  1.2055764241048815E+001 -1.0465918863468335E+000  1.6110175441357125E+001
       H  1.0947918033469481E+001 -1.9333977971453020E+000  1.6301357493239429E+001
       O  1.1761214382508328E+001 -1.7385710925721889E+000  1.6679461687814786E+001
       H  1.4046295096579724E+001  5.5730516170434905E+000  1.9947163579576291E+001
       H  1.3479785882483748E+001  6.6377684671883701E+000  2.1036211955348307E+001
       O  1.4378383783174419E+001  6.1556342492915137E+000  2.0627568135640093E+001
       H  2.9291460405575709E+001 -1.4538705966842236E+000  2.2043137793775514E+001
       H  3.0204982575815453E+001 -1.1417028261834401E+000  2.3248207666346239E+001
       O  2.9260485268940513E+001 -1.1627063891138889E+000  2.2961643620881684E+001
       H  1.9652068781672490E+001  1.6046003114286584E+001  1.5882903520607094E+001
       H  2.0467905833373933E+001  1.5017939228846494E+001  1.6787980386601287E+001
       O  2.0045220355658600E+001  1.5101980301234923E+001  1.5887395998105310E+001
       H  1.0892434386981011E+001  5.4899591745520411E+000 -5.5820276917474025E+000
       H  1.0697917897219154E+001  4.2650921625706228E+000 -6.4342293605322407E+000
       O  1.0314716036423320E+001  5.1656564514922705E+000 -6.2473892607355381E+000
       H -3.1879496645337153E+000  1.2068859228057990E+001 -4.8896700305910947E+000
       H -2.0141288432169757E+000  1.2588015066885802E+001 -5.6915344785179736E+000
       O -2.9181685612416319E+000  1.2209427916318692E+001 -5.8074771123865316E+000
       H  8.7447369926240874E+000  7.5319508272970301E+000  1.1536343497951993E+001
       H  9.0228436532266656E+000  6.4791410494345598E+000  1.0468525884173106E+001
       O  8.4004807794334422E+000  7.2261328486239211E+000  1.0707055371481768E+001
       H -1.5156032503491170E+001 -2.8473475025913859E+000  2.6155146671844789E+000
       H -1.6091309962535490E+001 -3.1065146733396070E+000  3.6738510483380300E+000
       O -1.5108289629674120E+001 -3.3485701747089092E+000  3.4851456667557055E+000
       H  7.8050727881673698E-001  7.9355507479334024E+000 -7.4123586658049128E+000
       H -7.5591139335170407E-002  7.3318038143155553E+000 -6.2418554446608683E+000
       O  3.9975576081298647E-001  8.2289625707516052E+000 -6.5715882319941583E+000
       H  1.3542533305607078E+001  9.3295111356992138E+000  7.2867355977821902E+000
       H  1.4258349967721713E+001  9.9062129746579846E+000  8.5394120081455931E+000
       O  1.4327841314456380E+001  9.3799626791619382E+000  7.7481228157375339E+000
       H  3.3134993751899509E+000  1.0563697973684219E+001  1.1841508586067342E+000
       H  3.1936383854381449E+000  1.1840729649126702E+001  1.9316386651507491E+000
       O  3.4321294881890534E+000  1.1436257786590964E+001  1.0670192866816206E+000
       H  1.3327354815975458E+001  1.3694040994874721E+001 -6.5117826095648192E+000
       H  1.4396937630998027E+001  1.3936849817370611E+001 -5.3626762390344602E+000
       O  1.4155288585942158E+001  1.4173667926051321E+001 -6.2276532414265411E+000
       H  1.2923751417788765E+001  1.8164815670132050E+001  1.3038353676284192E+001
       H  1.3824132177896278E+001  1.9119890976331664E+001  1.3946808984909849E+001
       O  1.2955416388640316E+001  1.8874129372624267E+001  1.3649414616103840E+001
       H  6.0998961988100975E+000 -4.5769427831004768E+000 -1.2276038022623526E+001
       H  6.1403361280902899E+000 -5.9137441717557184E+000 -1.1514280042167258E+001
       O  5.5369708439795495E+000 -5.2827046199228089E+000 -1.1978727598017207E+001
       H  8.6534626202711138E+000  1.0238157192818138E+001  4.8467592709932612E+000
       H  8.0282541502849103E+000  1.0034802459523009E+001  3.4498572641821319E+000
       O  8.1548690998189723E+000  9.6174407349363431E+000  4.3332755356287862E+000
       H  1.2360520043672228E+001  8.7215484965188050E+000  9.7801798479551945E+000
       H  1.0870588988469111E+001  8.2520975216212378E+000  1.0114873722878402E+001
       O  1.1572431293396454E+001  8.8412478354759898E+000  1.0390119490928562E+001
       H  5.0238048040833871E-001  1.8047015143449593E-001 -9.5411278700341686E+000
       H -2.7722898759661091E-001  1.4440833037797898E+000 -8.7636977378772265E+000
       O  2.0854173638588925E-002  5.7581303999472544E-001 -8.7550635879680438E+000
       H  2.8956035192336702E+000  1.3918270653885170E+001  4.6527032992486337E+000
       H  2.0622870034147578E+000  1.2949951948186039E+001  5.6414367781943522E+000
       O  2.0790141122369370E+000  1.3868449768062254E+001  5.2457803151656357E+000
       H -6.4731680026328640E+000 -6.5367703452239034E+000  1.5286959083480477E+001
       H -5.4653962642278833E+000 -5.3284189754059383E+000  1.5298214610912702E+001
       O -6.4148192051327371E+000 -5.5873707158232726E+000  1.5464407224153261E+001
       H  1.7454640694041533E+001  7.0096120243167448E-001  1.4122939202663119E+001
       H  1.8564175028600886E+001  1.7407006912833514E+000  1.4407751291105807E+001
       O  1.7851511663265232E+001  1.5414109331250421E+000  1.3797920861913434E+001
       H  1.5760338282538751E+001 -4.7242042699395075E+000  2.9005881042667635E+001
       H  1.5604763280355643E+001 -3.7297701977225204E+000  3.0103434730334389E+001
       O  1.5960638160845486E+001 -3.8458811053057418E+000  2.9233812422253159E+001
       H  1.9250770219040721E+001  6.9684485082014624E-001  2.1022775397736698E+001
       H  1.8594123740953922E+001  1.7434520005032939E+000  2.1833264093574499E+001
       O  1.9485549723983716E+001  1.3334599072434736E+000  2.1729658970768988E+001
       H  9.8202597313004425E+000  6.7056254277835392E-001 -3.5414157515093323E+000
       H  9.9755993696839518E+000  2.5144596234742816E-001 -5.0016892792760395E+000
       O  9.3756351577968697E+000  1.4302876109593873E-001 -4.1688970378711980E+000
       H  8.6936482880688128E+000 -5.8113437589792678E+000 -3.8708825048884830E+000
       H  7.3047764864307148E+000 -6.3687331077799758E+000 -4.5862002192797178E+000
       O  8.3182245555980323E+000 -6.3503230617697897E+000 -4.6072057271138460E+000
       H  3.5257614940343885E+001  1.6222092249661113E+001  1.5060801542693214E+001
       H  3.5349441304831899E+001  1.6846123281420013E+001  1.6433147496616229E+001
       O  3.4871505694062321E+001  1.6208168876533023E+001  1.5907735908193141E+001
       H  1.7566613136727604E+001  1.0620280408596289E+001  7.0365338445859340E+000
       H  1.8776981679100555E+001  9.7843451017668848E+000  6.9060087352538613E+000
       O  1.8247678771611238E+001  1.0267752813146089E+001  7.6474940027690410E+000
       H  8.9663810033035123E+000 -4.7913394304141530E+000  9.2134950681417820E+000
       H  8.5043756142090654E+000 -6.4011174081798865E+000  9.5313134631368843E+000
       O  9.2183714065896307E+000 -5.7521560947777042E+000  9.3683874306961172E+000
       H -2.2157171984514883E+000  3.9282344484524412E+000  6.0331068027190184E+000
       H -1.3079925552917695E+000  3.9625343623908016E+000  4.8450931844472231E+000
       O -1.8774348261243496E+000  3.3267529856680689E+000  5.3475905918154565E+000
       H  1.3568136928324028E+001 -1.2444734267091736E+001 -3.3448928017329109E+000
       H  1.2457922212613136E+001 -1.2881037250886957E+001 -4.6038902564324991E+000
       O  1.3268788482033202E+001 -1.3037376108188019E+001 -4.0720677225818536E+000
       H  2.1456504209761977E+001 -6.9745329580978710E-001 -1.5162009704564824E-001
       H  2.0052471879356066E+001 -7.3536201731532369E-001 -6.2279443377254662E-001