 # Version information for this restart file 
 # current date 2025-03-29 19:19:40.379
 # current working dir /ccc/scratch/cont003/gen2309/sicilana/NPT/128_H2O_4_NaCl_10_wt_673K_1000bar/BATCH_10_MD_T_673_P_1000_steps_1000_dt_0.5_NH2O_128_NaCl_4_abc_17.19_17.19_17.19_wt_9.20
 # Program compiled at                                       2024-10-31 15:04:21
 # Program compiled on                                                 topaze131
 # Program compiled for                                                   x86_64
 # Source code revision number                                                  
 &GLOBAL
   PRINT_LEVEL LOW
   PROJECT_NAME "brines"
   RUN_TYPE MD
   FLUSH_SHOULD_FLUSH T
 &END GLOBAL
 &MOTION
   &MD
     ENSEMBLE NPT_I
     STEPS 1000
     TIMESTEP  4.9999999999999994E-001
     STEP_START_VAL 25650
     TIME_START_VAL  1.2825000000007152E+004
     ECONS_START_VAL -2.4590398713531335E+003
     TEMPERATURE  6.7300000000000011E+002
     &BAROSTAT
       PRESSURE  1.0000000000000000E+003
       TIMECON  9.9999999999999986E+001
       &VELOCITY
           1.0131512334283129E-006
       &END VELOCITY
       &MASS
           4.2836593343398705E+007
       &END MASS
       &THERMOSTAT
         TYPE CSVR
         &CSVR
           TIMECON  4.8377686530095694E+001
           &THERMOSTAT_ENERGY
              -1.2723540480461906E-003
           &END THERMOSTAT_ENERGY
           &RNG_INIT
 Wiener process for Thermostat # 1        1 F T F  -7.2173542832190740E-01        2528676696.0        2611116935.0         199325997.0        1309911309.0        1574307282.0        3520095557.0             12345.0             12345.0             12345.0             12345.0             12345.0             12345.0             12345.0             12345.0             12345.0             12345.0             12345.0             12345.0
           &END RNG_INIT
         &END CSVR
       &END THERMOSTAT
     &END BAROSTAT
     &THERMOSTAT
       TYPE CSVR
       &CSVR
         TIMECON  4.9999999999999994E+002
         &THERMOSTAT_ENERGY
            -7.7636139529842452E-001
         &END THERMOSTAT_ENERGY
         &RNG_INIT
 Wiener process for Thermostat # 1        1 F T F  -3.8029878198991379E-01         996090537.0        4072101381.0        3392246961.0        2097984263.0        3621000786.0        1028912863.0             12345.0             12345.0             12345.0             12345.0             12345.0             12345.0             12345.0             12345.0             12345.0             12345.0             12345.0             12345.0
         &END RNG_INIT
       &END CSVR
     &END THERMOSTAT
     &AVERAGES T
       &RESTART_AVERAGES
         ITIMES_START 1
         AVECPU  2.2891601754314454E+001
         AVEHUGONIOT  0.0000000000000000E+000
         AVETEMP_BARO  3.0138885942921678E+002
         AVEPOT -2.4597104820577160E+003
         AVEKIN  1.2246074595377354E+000
         AVETEMP  6.5933502021286688E+002
         AVEKIN_QM  0.0000000000000000E+000
         AVETEMP_QM  0.0000000000000000E+000
         AVEVOL  3.8362181565245177E+004
         AVECELL_A  3.3653393515231208E+001
         AVECELL_B  3.3653393515231208E+001
         AVECELL_C  3.3653393515231208E+001
         AVEALPHA  9.0000000000000000E+001
         AVEBETA  9.0000000000000000E+001
         AVEGAMMA  9.0000000000000000E+001
         AVE_ECONS -1.2501511156956295E+002
         AVE_PRESS  3.7539141471886052E+002
         AVE_PXX  3.4445818973963139E+002
       &END RESTART_AVERAGES
     &END AVERAGES
   &END MD
   &PRINT
     &TRAJECTORY SILENT
       FILENAME =brines-1.xyz
       &EACH
         MD 1
       &END EACH
     &END TRAJECTORY
     &CELL SILENT
       FILENAME =brines-1.cell_xyz
       &EACH
         MD 1
       &END EACH
     &END CELL
     &VELOCITIES SILENT
       FILENAME =brines-1.vel
       &EACH
         MD 1
       &END EACH
     &END VELOCITIES
     &FORCES SILENT
       FILENAME =brines-1.force
       &EACH
         MD 1
       &END EACH
     &END FORCES
     &STRESS SILENT
       FILENAME =brines-1.stress
       &EACH
         MD 1
       &END EACH
     &END STRESS
     &RESTART SILENT
       FILENAME =brines-1.restart
       &EACH
         MD 1
       &END EACH
     &END RESTART
     &RESTART_HISTORY SILENT
       &EACH
         MD 50
       &END EACH
     &END RESTART_HISTORY
   &END PRINT
 &END MOTION
 &FORCE_EVAL
   METHOD QS
   STRESS_TENSOR ANALYTICAL
   &DFT
     BASIS_SET_FILE_NAME /ccc/work/cont003/gen2309/sicilana/DATA_CP2K/GTH_BASIS_SETS
     POTENTIAL_FILE_NAME /ccc/work/cont003/gen2309/sicilana/DATA_CP2K/GTH_POTENTIALS
     &SCF
       MAX_SCF 50
       EPS_SCF  9.9999999999999995E-008
       &OT T
         MINIMIZER DIIS
         PRECONDITIONER FULL_SINGLE_INVERSE
       &END OT
       &OUTER_SCF T
         EPS_SCF  9.9999999999999995E-008
         MAX_SCF 50
       &END OUTER_SCF
     &END SCF
     &QS
       EPS_DEFAULT  1.0000000000000000E-014
       EPSFIT  1.0000000000000000E-004
       EPSISO  9.9999999999999998E-013
       EPSRHO0  9.9999999999999995E-007
       QUADRATURE GC_LOG
       EXTRAPOLATION ASPC
       METHOD GAPW
     &END QS
     &MGRID
       NGRIDS 4
       CUTOFF  5.0000000000000000E+002
       REL_CUTOFF  6.0000000000000000E+001
     &END MGRID
     &XC
       DENSITY_CUTOFF  1.0000000000000000E-010
       GRADIENT_CUTOFF  1.0000000000000000E-010
       TAU_CUTOFF  1.0000000000000000E-010
       &XC_FUNCTIONAL NO_SHORTCUT
         &PBE T
           PARAMETRIZATION REVPBE
         &END PBE
       &END XC_FUNCTIONAL
       &VDW_POTENTIAL
         POTENTIAL_TYPE PAIR_POTENTIAL
         &PAIR_POTENTIAL
           TYPE DFTD3
           PARAMETER_FILE_NAME /ccc/work/cont003/gen2309/sicilana/DATA_CP2K/dftd3.dat
           REFERENCE_FUNCTIONAL "PBE"
           CALCULATE_C9_TERM T
           REFERENCE_C9_TERM T
           VERBOSE_OUTPUT T
           D3_EXCLUDE_KIND 3
         &END PAIR_POTENTIAL
       &END VDW_POTENTIAL
     &END XC
     &REAL_TIME_PROPAGATION
       INITIAL_WFN RT_RESTART
     &END REAL_TIME_PROPAGATION
     &PRINT
       &MO_CUBES SILENT
         WRITE_CUBE F
         NLUMO 10
         NHOMO 2
         &EACH
           MD 200
         &END EACH
       &END MO_CUBES
     &END PRINT
   &END DFT
   &SUBSYS
     &CELL
       A  1.9132459327732651E+001  0.0000000000000000E+000  0.0000000000000000E+000
       B  0.0000000000000000E+000  1.9132459327732651E+001  0.0000000000000000E+000
       C  0.0000000000000000E+000  0.0000000000000000E+000  1.9132459327732651E+001
       MULTIPLE_UNIT_CELL 1 1 1
     &END CELL
     &COORD
       H  9.4344768043568141E+000  2.3548118115162815E+001  5.8824299300312177E-001
       H  8.8617812177878950E+000  2.2660135397053750E+001  1.5580135848790995E+000
       O  9.6800670576755721E+000  2.3112052271607308E+001  1.3738439947192413E+000
       H  8.1725814248947390E+000 -6.6916327087034535E+000  1.8305905632361192E+000
       H  9.1215542392842845E+000 -7.6966807502084436E+000  1.1588386269835564E+000
       O  8.8771959248959789E+000 -7.3514260404565821E+000  2.0897014322021374E+000
       H -1.0692627494264620E+001  4.7603621476157727E+001  4.8231305888348615E+001
       H -1.0915423740895191E+001  4.9043483277172136E+001  4.7526590352880653E+001
       O -1.0633786268235978E+001  4.8103100291727309E+001  4.7386281109590925E+001
       H  8.8609740081622252E+000  2.2506597268236259E+001  2.6867410694500283E+001
       H  8.0015041076170021E+000  2.3694902004985103E+001  2.6726474031190477E+001
       O  8.9079980282264177E+000  2.3437252688755240E+001  2.6628902314807711E+001
       H -7.9952212134515204E+000  5.3621384615396668E+000  8.0169290831631184E+000
       H -6.7371578715669527E+000  5.9761315127393981E+000  8.2055885696899775E+000
       O -7.5798961730739389E+000  6.2678974228147775E+000  7.9227272039500498E+000
       H  3.4293490772325811E+001  2.6738518097522586E+001 -6.8739628753169981E+000
       H  3.2811101946370641E+001  2.7071201721515443E+001 -7.2794134384225657E+000
       O  3.3563415279634590E+001  2.7424502755229796E+001 -6.8229919027954740E+000
       H -4.8445219577442042E+000  4.2567781353721568E+000  8.0490102527378280E+000
       H -4.5767135834753327E+000  4.2019920300545524E+000  9.5978627392628848E+000
       O -5.2832046246517610E+000  4.2151524910039493E+000  8.9312841589191425E+000
       H  2.5640960627932749E+001  2.6397361483153894E+000  1.1802359760142238E+000
       H  2.5859565852626467E+001  4.2117030253473198E+000  8.0913757003898623E-001
       O  2.6091650279008103E+001  3.2621811251618209E+000  5.6746101779377711E-001
       H  2.1776156222974567E+001  1.3880806326292863E+001  1.4916881390167925E+001
       H  2.2060541879071849E+001  1.3482407362092113E+001  1.3410448488150189E+001
       O  2.2408749780878289E+001  1.3959465449369114E+001  1.4157444005681253E+001
       H  2.3778479734447000E+001 -2.4758186495082490E-002  2.1727577518640615E+001
       H  2.4188517735165970E+001 -1.3345116952694174E+000  2.0859517396146643E+001
       O  2.3521359559694574E+001 -6.6164673742259428E-001  2.0970964021134073E+001
       H  8.6865648167476461E+000  4.9591016133966231E-001 -7.6638627462105520E+000
       H  7.9134607987372219E+000 -6.0641181726643034E-001 -7.0886478245649025E+000
       O  8.5851520202159577E+000 -4.4981186691287683E-001 -7.6995349253917809E+000
       H  1.2630922573780598E+001  2.7055609462335330E+000  2.0814552196053295E+001
       H  1.1254920412920377E+001  3.3852265626625488E+000  2.1094167675440840E+001
       O  1.2152436830652354E+001  3.2950029270944028E+000  2.1428486737520522E+001
       H  1.6066991006425670E+001  1.6081286610668300E+001  4.3470977728138278E+000
       H  1.7218934065490231E+001  1.6125977790086978E+001  5.3703701273928814E+000
       O  1.6385079008666803E+001  1.5685120826087013E+001  5.2454961420749564E+000
       H  5.8746004063286703E+000 -1.1358801079649210E+001 -5.8383962111907095E-001
       H  5.3241221989650196E+000 -1.0388133914039525E+001 -1.7042215616365559E+000
       O  5.8993442170521311E+000 -1.0440445073178534E+001 -9.6076050937047386E-001
       H  3.1280110897019725E+001  3.4602589528575812E+001 -5.9243711537905655E-002
       H  3.1122362313000632E+001  3.3598301056297707E+001 -1.2893615376323335E+000
       O  3.0951052349234946E+001  3.3656235507822871E+001 -3.2083485880351786E-001
       H  1.3583761856012732E+001  7.8894116961384897E-001 -1.0341821464942210E+001
       H  1.3351597313698299E+001  2.4239447460605721E+000 -1.0124776138207796E+001
       O  1.3165912739008368E+001  1.5447364298946165E+000 -9.7350503118133247E+000
       H  2.0244030341884997E+001  9.3701867429590580E-001  6.0825275843819480E+000
       H  2.1697214490544788E+001  6.8108914625494554E-001  5.7719569847557759E+000
       O  2.1089567816253020E+001  1.4107924657018223E+000  5.8457290476898898E+000
       H  8.6706843116462888E+000 -2.7751248546436380E+000  1.7107197963696429E+001
       H  8.8700749546910771E+000 -2.8122834498932314E+000  1.8539012535127281E+001
       O  8.1522433132221472E+000 -2.7462685670761715E+000  1.7907045773470724E+001
       H  4.7309429736681912E+000  1.7417958921401027E+001  9.1806594209525088E+000
       H  5.5069873037665449E+000  1.6813404046969278E+001  7.9821778843358393E+000
       O  4.7565972984846763E+000  1.7346197956586060E+001  8.2140659428515850E+000
       H  2.0528529233137487E+001  2.7045309485438114E+001  4.3081992827633169E+000
       H  2.1356190037454468E+001  2.5943286422371450E+001  4.6311116364977067E+000
       O  2.1154668808873179E+001  2.6504156457305786E+001  3.8443300598520573E+000
       H  1.6318088291668854E+001  8.8110927282539340E+000  2.1110454689228821E+001
       H  1.6274687812319282E+001  1.0185184488403522E+001  2.0611637343536238E+001
       O  1.6572685244235203E+001  9.7026289210682943E+000  2.1390299681640293E+001
       H  9.4268273993584639E+000 -1.2761273255899027E+001  1.6901513939368499E+001
       H  8.2702983469852089E+000 -1.3552351376211963E+001  1.7196320248438962E+001
       O  9.1361306108894897E+000 -1.3366583237678089E+001  1.7553315564484226E+001
       H  2.9951915573359400E+001  1.2139296715399356E+001  2.4673692412737868E+001
       H  2.9424521075528030E+001  1.2593519632028469E+001  2.3229605584724165E+001
       O  2.9303994511354183E+001  1.2739562523006276E+001  2.4129017203139149E+001
       H -1.5094578889527615E+001  8.4971264716508390E+000  1.4368142920169138E+001
       H -1.5953717463849941E+001  7.4575117351585112E+000  1.5102471531217029E+001
       O -1.5945346561277283E+001  8.0075064279194486E+000  1.4243094205326695E+001
       H  1.0415239291932568E+000  5.2129990221741398E+000  7.3107711256483467E+000
       H  2.0774464992172383E+000  6.2633865109984912E+000  7.1836627167299651E+000
       O  1.9232766534174930E+000  5.3734513769134757E+000  6.9756989224453738E+000
       H -8.4771148799729890E+000 -1.5761476994181955E+001  1.6064516385741339E+001
       H -9.4385059095526067E+000 -1.5204703082262371E+001  1.7118558320198520E+001
       O -9.2559440453611170E+000 -1.6016552478208975E+001  1.6578748619629280E+001
       H  2.6233700296006131E+001  1.0504578526081506E+001 -1.0964924499539519E+000
       H  2.7238228517396141E+001  1.1609455748673195E+001 -1.2914150297524447E+000
       O  2.6973938466198902E+001  1.0774148828709745E+001 -1.5762750692085716E+000
       H  1.3208071652425330E+001 -3.5644146172058662E+000  2.6396511522497757E+001
       H  1.3525419320331293E+001 -3.1027965168184042E+000  2.4944681921380269E+001
       O  1.2801586221825158E+001 -3.3442974725563155E+000  2.5562646152290270E+001
       H -6.6457324281495938E+000  9.8348759889672355E+000 -6.9816394464942677E-001
       H -7.8173922212893947E+000  1.0602073377783665E+001 -1.4670667642699937E+000
       O -6.9110097084455724E+000  1.0669493357582198E+001 -1.0842146351740805E+000
       H  4.8635758360988808E+000  6.2999214564851966E+000  2.0960600991621190E+000
       H  3.5425428848042380E+000  5.7899217651878496E+000  1.1326016400671983E+000
       O  4.4488468330859972E+000  6.0672015806003117E+000  1.2591756243367664E+000
       H  1.0405856128364857E+000 -1.1635511192451202E+000  4.1353646758698659E+000
       H  1.4986178183409351E+000 -1.0848326909427055E+000  2.8487107822476854E+000
       O  1.2473992034936932E+000 -1.8244466131772050E+000  3.4213743498859759E+000
       H -3.3959031728002849E+000  2.1891963607262745E+001 -4.4539860221690777E+000
       H -2.6222089956297547E+000  2.2207027550498388E+001 -3.2494391441038766E+000
       O -3.5816151958182569E+000  2.2169269652348177E+001 -3.6057862694215901E+000
       H  2.2224979268879970E+001  2.8905680476601088E+001  1.1148159392939085E+001
       H  2.2170580693591511E+001  2.7375083480995254E+001  1.1217110053817333E+001
       O  2.1896022467074236E+001  2.8076085515088135E+001  1.0668322102989789E+001
       H  1.9269726071046080E+000 -1.9922263821262227E+001 -6.9034573425214019E+000
       H  1.4666403384318725E+000 -1.8535552094511871E+001 -7.5744610085367547E+000
       O  2.0108083629075355E+000 -1.8915597663663771E+001 -6.7816041036883883E+000
       H  8.4682146370301528E+000  4.5033176535990771E+000  1.0461794953954234E+001
       H  9.3946605712225182E+000  4.5872408183324778E+000  9.2725552014367185E+000
       O  9.4476794352559548E+000  4.4913070618188575E+000  1.0255154172371414E+001
       H  1.0549275635943715E+001  1.9799085343194935E+001 -1.9742091139205058E+001
       H  1.1094562838178492E+001  1.8585549048070000E+001 -1.8734949443252802E+001
       O  1.0923337463166581E+001  1.9495698430270313E+001 -1.8843634829360539E+001
       H  1.5392903967999509E+001 -7.6994833290821489E+000 -1.5557210149582110E+001
       H  1.5103119127049640E+001 -6.3530452335192376E+000 -1.4840881127408247E+001
       O  1.5070827518696992E+001 -6.7591073043111898E+000 -1.5680204343307901E+001
       H  1.3544780708303023E+001 -2.3789355615487953E+000  2.9320691368634680E+001
       H  1.4820115289240535E+001 -3.0798357969182311E+000  2.8883907387119379E+001
       O  1.3833778056342567E+001 -3.0083036174527349E+000  2.8730253778553312E+001
       H  2.2537596326539127E+001  4.3174185215120371E+000  1.5038822274580552E+001
       H  2.2729257535172401E+001  3.6464170013360979E+000  1.6325445257015147E+001
       O  2.2066869367016906E+001  4.2286591474976118E+000  1.5955005892294233E+001
       H  1.4255817602206944E+001  2.1910330655697091E+001  1.1155053283122299E+001
       H  1.4299784944099846E+001  2.3220833856244351E+001  1.1872392121606813E+001
       O  1.4908735892751126E+001  2.2528347533665443E+001  1.1498660233649748E+001
       H  2.8756169151632331E+000  4.8012317447350803E+000  5.3562495826230032E+000
       H  2.5282960991326964E+000  4.1917143818671132E+000  3.9679361943910836E+000
       O  3.2960617396584100E+000  4.5901659450883017E+000  4.4449864913443928E+000
       H  1.7703093647581749E+001  2.3164421552441329E+001 -7.7480156313305715E+000
       H  1.8176341951886240E+001  2.1841163230231718E+001 -6.9422014489880839E+000
       O  1.7894771440194138E+001  2.2202375633789583E+001 -7.8214123275674377E+000
       H  3.5443840527224801E+000  3.5525302854356404E+001  1.4262206768566475E+001
       H  4.7180776505264808E+000  3.5883747109810628E+001  1.5208941304943330E+001
       O  3.8386677466299224E+000  3.6151859031623083E+001  1.4949401027269017E+001
       H  1.2096924079206833E+001  1.0840045354264212E+000  1.2561611489425802E+001
       H  1.1334670865707746E+001  2.0145286861473943E+000  1.1574594127067829E+001
       O  1.1207571304645793E+001  1.3504340477037544E+000  1.2224958710714903E+001
       H  1.3309430220844112E+001  1.7816184003696762E+001 -1.8609978045950541E+001
       H  1.3208763715485665E+001  1.6935373688565388E+001 -1.7396244421047111E+001
       O  1.2674324603254982E+001  1.7364991591720855E+001 -1.8057300647161938E+001
       H -8.7868921266462880E+000  1.4519784421424502E+001  5.9032827036219953E+000
       H -8.3398098061355732E+000  1.5772290853627300E+001  6.4113617424084683E+000
       O -9.2419838289098593E+000  1.5312772765110601E+001  6.3297792513248332E+000
       H  9.9830694156634419E+000  3.4943592666842385E+001  1.5069462342369814E+001
       H  9.4190870876168269E+000  3.6274996386526688E+001  1.4694603442050553E+001
       O  9.8109498889915177E+000  3.5843545186194930E+001  1.5452426005497010E+001
       H  5.9086277005249954E+000  7.0024506548440133E+000  1.4611140770416377E+001
       H  5.6409734696985536E+000  5.8229714845667404E+000  1.5664534215903780E+001
       O  5.8454787859490862E+000  6.7537826862372246E+000  1.5564861522340049E+001
       H -6.8434645057186172E-001  1.9687549646321177E+001 -5.1672050980817685E-001
       H -2.1507079817879049E+000  1.9960751119651515E+001 -1.5682261755104884E-002
       O -1.1619179162507061E+000  1.9914748275112071E+001  2.9675697300684334E-001
       H -4.1534643387367334E+000  1.7809239481662740E+001  2.3684481214962872E+001
       H -5.5839354466306954E+000  1.8376180282837243E+001  2.4026380076518397E+001
       O -5.1694447335534566E+000  1.7594803499541790E+001  2.3550435690790433E+001
       H  1.8345095697611288E+001 -6.0432248152567536E-001  6.4402924266014905E+000
       H  1.8917975303500572E+001 -1.9060114454936194E+000  6.6249590968453829E+000
       O  1.8734801136237078E+001 -1.2711066238525386E+000  5.9076344584605449E+000
       H -3.2877019302894396E+001  7.2565376449932888E+000  2.3256392064756476E+001
       H -3.3274668669362640E+001  5.7353365841153714E+000  2.3205174413700146E+001
       O -3.2526592763158114E+001  6.3766076299140977E+000  2.2894784618553601E+001
       H  1.0657770770921045E+001  8.1348782195360805E+000  1.3389869790184191E+001
       H  9.5797136608626214E+000  9.2614693108663815E+000  1.3759599171177221E+001
       O  1.0202454578090263E+001  8.9378544545767866E+000  1.3032680025594084E+001
       H  1.7975833266381105E+001 -1.7173119004438654E+001  2.5903778144311232E+001
       H  1.8279917763502848E+001 -1.7980167736613829E+001  2.7127808526660822E+001
       O  1.8174560676524241E+001 -1.8122094200812604E+001  2.6201534142852086E+001
       H -9.3867320439318447E-001  1.6023776765653640E+001 -5.7876898972176383E+000
       H -7.8286439269510788E-002  1.7033207815541761E+001 -5.1195582806200415E+000
       O -3.9231419218949973E-002  1.6343298966307760E+001 -5.8493025163288594E+000
       H  1.9172835068415196E+001  1.1566580564570627E+001  1.5152404674860215E+001
       H  1.8951559772573145E+001  1.1481233051944219E+001  1.6831453183415125E+001
       O  1.8855098487829654E+001  1.1014416652923462E+001  1.5939110805305685E+001
       H  2.6561922997729681E+000  9.2109565365347859E+000  2.6989729928773432E+001
       H  3.9730853988748112E+000  9.1574409333526283E+000  2.6251854104961062E+001
       O  3.1384522568784470E+000  9.5503711834917233E+000  2.6154941356396012E+001
       H  2.6536509711671914E+000 -6.5470587378007785E+000 -1.2534160434955550E+000
       H  1.5659076818882287E+000 -7.4864086452158292E+000 -9.1321424893731651E-001
       O  2.0225066214826839E+000 -7.1172329887700574E+000 -1.7244748775624064E+000
       H  3.1269248144163120E+000  9.2190497766340123E+000  1.7598134437900857E+001
       H  2.5700474766274262E+000  9.9150750922597464E+000  1.6159384472461372E+001
       O  2.6498118353574736E+000  9.0362060226244409E+000  1.6760587263339662E+001
       H  7.8389127999029791E+000  2.3934218656243075E+001  3.1752205269796228E+001
       H  8.2898656511238631E+000  2.3193754173829625E+001  3.3147223872069667E+001
       O  7.8058413093240784E+000  2.3074958407698958E+001  3.2254937498277158E+001
       H  8.2593090487702359E+000  3.3510297242162160E+001 -1.2280876644174783E+000
       H  9.5919005141736537E+000  3.2626236529752930E+001 -1.3789189773745454E+000
       O  8.7319092956491176E+000  3.2807551081322025E+001 -1.7857572577417027E+000
       H  1.6505568154981970E-001  1.0280990359154940E+001  1.2572394574036045E+001
       H -4.4532094537910233E-001  1.1692902794895677E+001  1.2327428409979996E+001
       O  3.5200253462763792E-001  1.1213311409575448E+001  1.2608352682269206E+001
       H  1.4786798196816846E+001  1.2245448107442435E+001 -1.8718352109438094E+001
       H  1.5551597199368755E+001  1.1698402532891473E+001 -1.9852619415492601E+001
       O  1.5556693107218242E+001  1.1630109696458117E+001 -1.8894536691484394E+001
       H  1.2736159690548304E+001 -2.0904021477506083E+000  1.6714729020052065E+001
       H  1.1421330388726762E+001 -1.5831284733746989E+000  1.6370184916819483E+001
       O  1.2189631304813533E+001 -1.2845918868400812E+000  1.6814101721022038E+001
       H  1.4067926192369981E+001  5.9038513617363213E+000  2.1151977828718060E+001
       H  1.4805984094426544E+001  7.3403148058139998E+000  2.1225754443381241E+001
       O  1.4801016324903978E+001  6.5037381148662945E+000  2.0655181140427455E+001
       H  3.0590206022945850E+001 -1.7359623267003117E+000  2.3632802787152670E+001
       H  3.0348997786427102E+001 -4.2787742721175448E-001  2.3042422993491204E+001
       O  2.9828282744684856E+001 -1.2626761092850645E+000  2.3162138626379001E+001
       H  2.0369023088583379E+001  1.5525773777885458E+001  1.6605696598643650E+001
       H  2.1840356503221837E+001  1.5843193647682138E+001  1.6151830384678380E+001
       O  2.1315404850772801E+001  1.5288972731426236E+001  1.6749341273043690E+001
       H  1.0359187331264275E+001  4.3418332509093762E+000 -5.8621856360839901E+000
       H  1.0606323956515064E+001  5.4969284957196711E+000 -6.7801053228283763E+000
       O  1.0398442591557925E+001  5.3503689825580665E+000 -5.8385911873968057E+000
       H -3.0672178181858150E+000  1.2545884706387533E+001 -4.9810147788651129E+000
       H -2.6682538240547911E+000  1.1319911871356673E+001 -5.7838517128653759E+000
       O -2.8660433525532842E+000  1.2310578850621368E+001 -5.8827059512930884E+000
       H  9.0393048808006906E+000  7.9169353302509533E+000  1.1927872953364419E+001
       H  9.1369494654884313E+000  6.8552280276768878E+000  1.0758462638253937E+001
       O  8.5875078585489870E+000  7.1920207095810875E+000  1.1471415909742378E+001
       H -1.5287825088190299E+001 -3.4656169635358216E+000  4.2636797726815283E+000
       H -1.6441316395614869E+001 -3.4523858983701396E+000  3.3789576306399547E+000
       O -1.5730371654947806E+001 -4.0027179349781363E+000  3.6597158623695960E+000
       H  1.1700479636345071E+000  8.5626003642590209E+000 -7.3950863263146980E+000
       H  4.6589997850452441E-001  7.9894317866133919E+000 -6.1830147007535992E+000
       O  2.3518070236642505E-001  8.4849551083329295E+000 -6.9631032861643796E+000
       H  1.3217614467644072E+001  9.1256194221628668E+000  7.1431129944111671E+000
       H  1.3880656115272695E+001  9.3462855415393129E+000  8.4757398102455976E+000
       O  1.4054977820093473E+001  9.5248550950145567E+000  7.4908329023165603E+000
       H  3.4982759712133502E+000  1.0683351363029647E+001  1.8907143707519269E+000
       H  2.7854170584018885E+000  1.1973634694749812E+001  2.1056893713192966E+000
       O  3.3344489270483630E+000  1.1608326847898601E+001  1.4857533678309343E+000
       H  1.3285701522675852E+001  1.4711759362497277E+001 -6.1420608845467690E+000
       H  1.4683773175572718E+001  1.4016800620642975E+001 -6.0719597448671658E+000
       O  1.4201652628236220E+001  1.4772488450215032E+001 -6.3454559022289088E+000
       H  1.3330632660912636E+001  1.8660615850599573E+001  1.3865153567363366E+001
       H  1.3717525860765253E+001  1.9892176380289303E+001  1.4556512232803433E+001
       O  1.3694992416306221E+001  1.9546102638535935E+001  1.3623522262810461E+001
       H  6.1816874197350407E+000 -5.3570296984791748E+000 -1.3102275304921854E+001
       H  5.0812891918326057E+000 -5.6599357477795502E+000 -1.2135586061002439E+001
       O  5.5316827621690718E+000 -4.9244748476193339E+000 -1.2514376971130536E+001
       H  8.0570367095159288E+000  9.7644646898735594E+000  5.2304716790134869E+000
       H  8.4470436169385170E+000  1.0732261750160474E+001  4.1448651939750718E+000
       O  7.8421055728935398E+000  1.0635981276998558E+001  4.8455125320330854E+000
       H  1.1541011514282825E+001  8.4352203116578011E+000  1.0016176736767127E+001
       H  1.2564199196028914E+001  9.4851678140773874E+000  1.0466580929921893E+001
       O  1.2467118674431866E+001  8.5668996545089975E+000  1.0226084530033235E+001
       H  4.2040504137307777E-001  3.3613503869761430E-001 -9.9515622800260424E+000
       H -1.7479235289526818E-001  1.5896487088955167E+000 -9.3368576952438556E+000
       O  4.5050140439522705E-002  6.2323787622195626E-001 -9.1628325332178697E+000
       H  2.2193901195995034E+000  1.4136561026747247E+001  4.9683341206055021E+000
       H  1.7457675505780479E+000  1.2864751166985275E+001  5.7154498459126577E+000
       O  1.4311428903889070E+000  1.3766218937703874E+001  5.4604418073855543E+000
       H -6.3310591776924987E+000 -6.8904368387785464E+000  1.6985488488401973E+001
       H -6.1811957994725670E+000 -6.6009410333425933E+000  1.5400731831845297E+001
       O -6.5872814941943503E+000 -6.2481766682686333E+000  1.6251483327004287E+001
       H  1.9262844360978637E+001  2.3550542599497986E+000  1.4161775380868004E+001
       H  1.8653982890763245E+001  1.0822365262284888E+000  1.4727905983949807E+001
       O  1.8563405669572276E+001  1.7329265020074955E+000  1.4007529991403905E+001
       H  1.6759108218453385E+001 -5.0303801134119244E+000  2.8973198033954251E+001
       H  1.6405460821505315E+001 -4.1998674217424181E+000  3.0072082730972049E+001
       O  1.6803514072945987E+001 -4.0958667269004359E+000  2.9225662143980404E+001
       H  1.9272494830746567E+001  8.0980909893677211E-001  2.0739604379885741E+001
       H  1.9417698441377571E+001  1.6971766999567826E+000  2.2028122663810279E+001
       O  1.9854279345100224E+001  1.0525442047024105E+000  2.1512490097362019E+001
       H  8.6653753699963030E+000  1.0750565532982319E+000 -4.6290959897569532E+000
       H  9.9186654838368415E+000  9.8574017324609220E-001 -5.4560162886906269E+000
       O  9.0753708309495718E+000  5.6650072441712018E-001 -5.3165157504999039E+000
       H  8.3335710662314693E+000 -6.3927284865366643E+000 -4.1097484640777626E+000
       H  7.9632745647298693E+000 -7.2727232284675560E+000 -5.3185791169830852E+000
       O  8.7345423611393365E+000 -6.8517080154279801E+000 -4.8156917230267364E+000
       H  3.5140037652335579E+001  1.6739729192430541E+001  1.5487028259484905E+001
       H  3.6556919981298520E+001  1.6722163202171274E+001  1.5922163317438125E+001
       O  3.5941533970331591E+001  1.6136539664323006E+001  1.5378313730307537E+001
       H  1.9218585327586378E+001  9.5178254404935192E+000  6.6938601823664934E+000
       H  1.8586660730750932E+001  1.0762351214762420E+001  7.5414517684524887E+000
       O  1.8968716456219898E+001  9.8607767840072054E+000  7.5804553013688141E+000
       H  8.6295157025145315E+000 -6.0906593283220030E+000  7.9117943554480403E+000
       H  9.1434753856253455E+000 -5.1251946854776333E+000  8.9018449548772605E+000
       O  8.9721797687980747E+000 -6.0905299805455746E+000  8.8250936557851425E+000
       H -2.4801596589952029E+000  4.1999555482628859E+000  5.9239104161980807E+000
       H -1.9931674118216562E+000  4.2991723365950847E+000  4.5066317496705324E+000
       O -2.8219806514531172E+000  4.3173161451128204E+000  5.0416874191867063E+000
       H  1.2553742344417852E+001 -1.4071408392427877E+001 -4.3703122333396038E+000
       H  1.3460868355263598E+001 -1.2913661585297865E+001 -4.7258502710731340E+000
       O  1.3099212259294527E+001 -1.3375489068417107E+001 -3.8736248596057647E+000
       H  2.1598857490605063E+001 -1.3089613239829305E+000  6.4615324891032411E-001
       H  2.0659635088745247E+001 -2.3327431618162722E+000 -5.1939817308165714E-002