 # Version information for this restart file 
 # current date 2025-03-29 15:43:11.150
 # current working dir /ccc/scratch/cont003/gen2309/sicilana/NPT/128_H2O_4_NaCl_10_wt_673K_1000bar/BATCH_10_MD_T_673_P_1000_steps_1000_dt_0.5_NH2O_128_NaCl_4_abc_17.19_17.19_17.19_wt_9.20
 # Program compiled at                                       2024-10-31 15:04:21
 # Program compiled on                                                 topaze131
 # Program compiled for                                                   x86_64
 # Source code revision number                                                  
 &GLOBAL
   PRINT_LEVEL LOW
   PROJECT_NAME "brines"
   RUN_TYPE MD
   FLUSH_SHOULD_FLUSH T
 &END GLOBAL
 &MOTION
   &MD
     ENSEMBLE NPT_I
     STEPS 1000
     TIMESTEP  4.9999999999999994E-001
     STEP_START_VAL 25150
     TIME_START_VAL  1.2575000000007236E+004
     ECONS_START_VAL -2.4590398713531335E+003
     TEMPERATURE  6.7300000000000011E+002
     &BAROSTAT
       PRESSURE  1.0000000000000000E+003
       TIMECON  9.9999999999999986E+001
       &VELOCITY
           8.1530671630991343E-007
       &END VELOCITY
       &MASS
           4.2836593343398705E+007
       &END MASS
       &THERMOSTAT
         TYPE CSVR
         &CSVR
           TIMECON  4.8377686530095694E+001
           &THERMOSTAT_ENERGY
              -2.8813397606271816E-004
           &END THERMOSTAT_ENERGY
           &RNG_INIT
 Wiener process for Thermostat # 1        1 F T F  -1.6709802264797569E+00        1602432123.0        3952587597.0        1521329318.0        2630859484.0        2478515263.0         918953320.0             12345.0             12345.0             12345.0             12345.0             12345.0             12345.0             12345.0             12345.0             12345.0             12345.0             12345.0             12345.0
           &END RNG_INIT
         &END CSVR
       &END THERMOSTAT
     &END BAROSTAT
     &THERMOSTAT
       TYPE CSVR
       &CSVR
         TIMECON  4.9999999999999994E+002
         &THERMOSTAT_ENERGY
            -8.1582923114307437E-001
         &END THERMOSTAT_ENERGY
         &RNG_INIT
 Wiener process for Thermostat # 1        1 F T F   1.6340753067943268E+00        2537005614.0        1205416239.0        3160812092.0        3339080771.0        2437613787.0        2395271485.0             12345.0             12345.0             12345.0             12345.0             12345.0             12345.0             12345.0             12345.0             12345.0             12345.0             12345.0             12345.0
         &END RNG_INIT
       &END CSVR
     &END THERMOSTAT
     &AVERAGES T
       &RESTART_AVERAGES
         ITIMES_START 1
         AVECPU  2.2830236157646446E+001
         AVEHUGONIOT  0.0000000000000000E+000
         AVETEMP_BARO  3.0144991957520841E+002
         AVEPOT -2.4597043533808855E+003
         AVEKIN  1.2259587476438798E+000
         AVETEMP  6.6006256075154306E+002
         AVEKIN_QM  0.0000000000000000E+000
         AVETEMP_QM  0.0000000000000000E+000
         AVEVOL  3.8215999454839854E+004
         AVECELL_A  3.3611606850335086E+001
         AVECELL_B  3.3611606850335086E+001
         AVECELL_C  3.3611606850335086E+001
         AVEALPHA  9.0000000000000000E+001
         AVEBETA  9.0000000000000000E+001
         AVEGAMMA  9.0000000000000000E+001
         AVE_ECONS -1.2030060554835086E+002
         AVE_PRESS  3.6198595348693362E+002
         AVE_PXX  3.2947944090683512E+002
       &END RESTART_AVERAGES
     &END AVERAGES
   &END MD
   &PRINT
     &TRAJECTORY SILENT
       FILENAME =brines-1.xyz
       &EACH
         MD 1
       &END EACH
     &END TRAJECTORY
     &CELL SILENT
       FILENAME =brines-1.cell_xyz
       &EACH
         MD 1
       &END EACH
     &END CELL
     &VELOCITIES SILENT
       FILENAME =brines-1.vel
       &EACH
         MD 1
       &END EACH
     &END VELOCITIES
     &FORCES SILENT
       FILENAME =brines-1.force
       &EACH
         MD 1
       &END EACH
     &END FORCES
     &STRESS SILENT
       FILENAME =brines-1.stress
       &EACH
         MD 1
       &END EACH
     &END STRESS
     &RESTART SILENT
       FILENAME =brines-1.restart
       &EACH
         MD 1
       &END EACH
     &END RESTART
     &RESTART_HISTORY SILENT
       &EACH
         MD 50
       &END EACH
     &END RESTART_HISTORY
   &END PRINT
 &END MOTION
 &FORCE_EVAL
   METHOD QS
   STRESS_TENSOR ANALYTICAL
   &DFT
     BASIS_SET_FILE_NAME /ccc/work/cont003/gen2309/sicilana/DATA_CP2K/GTH_BASIS_SETS
     POTENTIAL_FILE_NAME /ccc/work/cont003/gen2309/sicilana/DATA_CP2K/GTH_POTENTIALS
     &SCF
       MAX_SCF 50
       EPS_SCF  9.9999999999999995E-008
       &OT T
         MINIMIZER DIIS
         PRECONDITIONER FULL_SINGLE_INVERSE
       &END OT
       &OUTER_SCF T
         EPS_SCF  9.9999999999999995E-008
         MAX_SCF 50
       &END OUTER_SCF
     &END SCF
     &QS
       EPS_DEFAULT  1.0000000000000000E-014
       EPSFIT  1.0000000000000000E-004
       EPSISO  9.9999999999999998E-013
       EPSRHO0  9.9999999999999995E-007
       QUADRATURE GC_LOG
       EXTRAPOLATION ASPC
       METHOD GAPW
     &END QS
     &MGRID
       NGRIDS 4
       CUTOFF  5.0000000000000000E+002
       REL_CUTOFF  6.0000000000000000E+001
     &END MGRID
     &XC
       DENSITY_CUTOFF  1.0000000000000000E-010
       GRADIENT_CUTOFF  1.0000000000000000E-010
       TAU_CUTOFF  1.0000000000000000E-010
       &XC_FUNCTIONAL NO_SHORTCUT
         &PBE T
           PARAMETRIZATION REVPBE
         &END PBE
       &END XC_FUNCTIONAL
       &VDW_POTENTIAL
         POTENTIAL_TYPE PAIR_POTENTIAL
         &PAIR_POTENTIAL
           TYPE DFTD3
           PARAMETER_FILE_NAME /ccc/work/cont003/gen2309/sicilana/DATA_CP2K/dftd3.dat
           REFERENCE_FUNCTIONAL "PBE"
           CALCULATE_C9_TERM T
           REFERENCE_C9_TERM T
           VERBOSE_OUTPUT T
           D3_EXCLUDE_KIND 3
         &END PAIR_POTENTIAL
       &END VDW_POTENTIAL
     &END XC
     &REAL_TIME_PROPAGATION
       INITIAL_WFN RT_RESTART
     &END REAL_TIME_PROPAGATION
     &PRINT
       &MO_CUBES SILENT
         WRITE_CUBE F
         NLUMO 10
         NHOMO 2
         &EACH
           MD 200
         &END EACH
       &END MO_CUBES
     &END PRINT
   &END DFT
   &SUBSYS
     &CELL
       A  1.8983569318529298E+001  0.0000000000000000E+000  0.0000000000000000E+000
       B  0.0000000000000000E+000  1.8983569318529298E+001  0.0000000000000000E+000
       C  0.0000000000000000E+000  0.0000000000000000E+000  1.8983569318529298E+001
       MULTIPLE_UNIT_CELL 1 1 1
     &END CELL
     &COORD
       H  8.5171989111712030E+000  2.3705832477264796E+001 -5.2934773442915539E-001
       H  9.0414218539783295E+000  2.3631527836283471E+001  1.0114368279833965E+000
       O  9.2431394941228664E+000  2.3799692300961134E+001  8.4716999726127271E-002
       H  8.6072177329636972E+000 -7.9484256137721880E+000  2.1099988615335468E+000
       H  8.3690904462121782E+000 -6.8530228892698339E+000  1.0552028399783089E+000
       O  8.9377751720203378E+000 -7.6164353668795322E+000  1.3030168753425708E+000
       H -1.2063892180913095E+001  4.8963715890588624E+001  4.7435389437125352E+001
       H -1.1332253100681172E+001  4.9166959314925251E+001  4.6059591826062089E+001
       O -1.1234133119169337E+001  4.8769699483939043E+001  4.6935749668697454E+001
       H  7.8916802260889742E+000  2.4811413091686088E+001  2.5250649869105086E+001
       H  7.1977134909804006E+000  2.3454568479312215E+001  2.5028056247791024E+001
       O  7.8432383915761088E+000  2.3933939466700160E+001  2.5647717863457583E+001
       H -8.0095377918875474E+000  6.6500313791495866E+000  5.4308137711866245E+000
       H -8.9472041987184046E+000  5.9343337458328635E+000  6.7239334650877982E+000
       O -8.5321259254987822E+000  6.7898918076184858E+000  6.3485470862104378E+000
       H  3.3797394996555447E+001  2.5348510371056342E+001 -6.4366715165875386E+000
       H  3.3843525674189010E+001  2.4606493728181832E+001 -7.9123620523028082E+000
       O  3.3728387903105805E+001  2.5528074079517324E+001 -7.4480598085867484E+000
       H -5.9719853099401865E+000  5.9534270503844873E+000  7.5693861897042103E+000
       H -6.7053304277991801E+000  4.7361853204790103E+000  8.0468209362787082E+000
       O -5.8636723917247968E+000  4.9707716072834538E+000  7.6020321079772266E+000
       H  2.5342195838257918E+001  4.6188847423900707E+000  2.2498723971737609E+000
       H  2.4890703447441695E+001  6.1049820362546612E+000  2.7564310662434783E+000
       O  2.4858271187311967E+001  5.3905490735422337E+000  2.1268842261668977E+000
       H  1.9874368529081494E+001  1.3040527427742632E+001  1.4739828601001435E+001
       H  2.1358841663567034E+001  1.3710198460927861E+001  1.4475308207569217E+001
       O  2.0415037694249932E+001  1.3901686435686560E+001  1.4798945400586730E+001
       H  2.2760430073046212E+001  1.0079735032045818E+000  2.1269108013144578E+001
       H  2.3855980544448922E+001  3.6114045219199226E-003  2.0585603471835093E+001
       O  2.2902352939640966E+001  1.6275498523578197E-001  2.0644693012349638E+001
       H  1.0083378248766683E+001 -4.0035099272584729E+000 -7.8104711039991424E+000
       H  9.6829176205162906E+000 -2.5710065391058525E+000 -7.4345944592128692E+000
       O  9.5661946563124935E+000 -3.1820991683185120E+000 -8.1692401572346416E+000
       H  1.1246370472160759E+001  3.3552112302531940E+000  1.8500624796124743E+001
       H  1.2233370761316156E+001  2.3100292192559961E+000  1.7859419573574332E+001
       O  1.1872069653215066E+001  2.6415831868711250E+000  1.8700104453969420E+001
       H  1.5519117219240330E+001  1.6976600491673548E+001  6.0900438432748603E+000
       H  1.7040653187927731E+001  1.6362917178321236E+001  6.1037292126703964E+000
       O  1.6090447816292947E+001  1.6293311473239864E+001  5.7187571470378540E+000
       H  4.9724110579980092E+000 -9.5973690632486317E+000  5.1787503189983997E-001
       H  4.2320718742568628E+000 -1.0907683387310680E+001  2.1935743633317523E-001
       O  4.6871217508042005E+000 -1.0126306511401804E+001 -3.0278744668373125E-001
       H  3.2001053383949696E+001  3.1983391023000248E+001 -5.6458782189788548E-001
       H  3.0953615686386819E+001  3.2598926905926433E+001  3.8753109583089534E-001
       O  3.1207231995783662E+001  3.2609646614978587E+001 -5.8359910420003447E-001
       H  1.3304804260605561E+001  1.2720206871999520E+000 -6.8705730682328339E+000
       H  1.2747006023466263E+001  1.4240905000864720E-001 -7.5968771904470831E+000
       O  1.3619239354218905E+001  4.7718146582157034E-001 -7.2779362606686968E+000
       H  2.1897860512144749E+001  1.8650017797649052E+000  4.9483299977848576E+000
       H  2.3460068931891843E+001  1.6648312698390362E+000  4.9896813050168385E+000
       O  2.2750165791461299E+001  2.2683362599722181E+000  4.6903346803167851E+000
       H  8.0753631878250030E+000 -1.8834327440288314E+000  1.6657059240549916E+001
       H  7.2984872204819276E+000 -3.1839195569016883E+000  1.7182944196288691E+001
       O  7.4145318442394625E+000 -2.2297698077516181E+000  1.7309418519152757E+001
       H  3.8962128480547933E+000  1.6823757441177854E+001  8.7746491658299810E+000
       H  5.5209631794116758E+000  1.6900319040069501E+001  8.4732323997376220E+000
       O  4.6517761760462362E+000  1.6579593247537783E+001  8.1815092603097419E+000
       H  2.0932310700968578E+001  2.8738903033449343E+001  3.5628480673707768E+000
       H  1.9530428669895819E+001  2.8011707351353685E+001  3.7088995521398815E+000
       O  2.0479200860002884E+001  2.7892160440719579E+001  3.8230171477023305E+000
       H  1.5145694956575497E+001  7.0593609985624761E+000  2.1891501858603124E+001
       H  1.6429533172505653E+001  6.9946508898973967E+000  2.0953098288268716E+001
       O  1.6048043648989264E+001  7.4888463282428992E+000  2.1761988848074143E+001
       H  6.4937820926830723E+000 -1.2222022373827778E+001  1.6332200199631774E+001
       H  6.3665515645064854E+000 -1.3222560926413857E+001  1.7518927991705667E+001
       O  6.9860884160943142E+000 -1.2853905162028964E+001  1.6884496892712288E+001
       H  2.9179418998713579E+001  1.0207269726973440E+001  2.3716742132430532E+001
       H  3.0058015285374697E+001  1.0865301165425134E+001  2.2658579675021226E+001
       O  2.9358283973255677E+001  1.1054807880688346E+001  2.3387085092785231E+001
       H -1.4390628587745779E+001  8.1425245506207915E+000  1.2036726244335552E+001
       H -1.3210202669146796E+001  7.9762232290023691E+000  1.1137462088766426E+001
       O -1.3435092329117214E+001  8.1865456466060085E+000  1.2087784767357691E+001
       H  2.7555227071636748E+000  3.4349335544793278E+000  8.8187380379260496E+000
       H  1.8138286993076274E+000  4.5479405748268356E+000  9.1709761969414139E+000
       O  2.6816570417303001E+000  4.1805480770704238E+000  9.5058432873773349E+000
       H -1.0182809931972697E+001 -1.5060439009836450E+001  1.6233162131016204E+001
       H -1.0952751208133916E+001 -1.4332945402495598E+001  1.5262253233902758E+001
       O -1.0571125914946148E+001 -1.5251377716009328E+001  1.5353600544956251E+001
       H  2.5528772763775066E+001  9.5806065514928349E+000 -1.7316135549972549E+000
       H  2.6303427770208014E+001  1.0953905882218118E+001 -1.5973363665441858E+000
       O  2.5942256550259476E+001  1.0268922584386944E+001 -2.2625112289721838E+000
       H  1.2304990489314973E+001 -2.5637624321178341E+000  2.5037754513047961E+001
       H  1.3038410356508653E+001 -1.3564232452267739E+000  2.4562493342834767E+001
       O  1.3207206294004949E+001 -2.3014197821596456E+000  2.4814670886428665E+001
       H -8.2999789638301227E+000  1.1119903708463884E+001  1.6838875192154099E+000
       H -6.7702414543002893E+000  1.1490096434928153E+001  2.1067364260465427E+000
       O -7.3978584095675082E+000  1.0795719650812833E+001  2.0194489750142801E+000
       H  4.5677266085284174E+000  7.8963672297318608E+000  3.1702591419431343E+000
       H  3.1816361419200736E+000  7.5216723910070646E+000  3.0483083927880625E+000
       O  3.7929659974414247E+000  8.1781587281737753E+000  2.6421870731645463E+000
       H  1.0092495312560881E+000 -2.0418588245997098E+000  3.7219005658966626E+000
       H  7.7735220427816032E-001 -9.3997727965880906E-001  2.6183893857302150E+000
       O  1.3301327825121050E+000 -1.8725235976121886E+000  2.8456807468076701E+000
       H -3.6970889286886934E+000  2.1758607508461246E+001 -3.2125017417027490E+000
       H -4.1106100463294570E+000  2.1343980809355660E+001 -1.6836228857086037E+000
       O -4.4759857026738183E+000  2.1547807049123371E+001 -2.5868244644292697E+000
       H  2.0906414427859708E+001  2.7326050805120573E+001  9.5653441574823290E+000
       H  2.0224170069137319E+001  2.6561625008749456E+001  8.4178701583821720E+000
       O  2.0403711747000127E+001  2.7433199103809585E+001  8.6598943154340535E+000
       H  3.4812867370809575E+000 -1.5711715083115662E+001 -8.3958395744146728E+000
       H  2.3718372521272655E+000 -1.6797377473242317E+001 -7.8953646182567896E+000
       O  3.2902795954162900E+000 -1.6603217060232780E+001 -7.9783324799632469E+000
       H  9.7116146976559801E+000  5.1697901241485287E+000  9.7768836611059360E+000
       H  1.0655193255408863E+001  4.4994588196815943E+000  1.0728469679162689E+001
       O  1.0327724959700554E+001  4.4569074560261015E+000  9.8371583311826498E+000
       H  8.7816957851818884E+000  2.0388787579113870E+001 -1.9023685841785746E+001
       H  1.0209516206408544E+001  1.9639206534793516E+001 -1.8781162038765750E+001
       O  9.3212799750360329E+000  1.9533896440496154E+001 -1.9088884267924104E+001
       H  1.4442756467553835E+001 -4.3652836376379982E+000 -1.3397045551943508E+001
       H  1.5011260114834045E+001 -5.8139179711349174E+000 -1.3945737366119889E+001
       O  1.4215021587425532E+001 -5.2893736748650930E+000 -1.3722770187978623E+001
       H  1.3373189750298746E+001 -2.7230914961025454E+000  2.8662206838584236E+001
       H  1.4110374024050170E+001 -1.6270385138719916E+000  2.9303914303874421E+001
       O  1.3290170047735401E+001 -1.8213009361979580E+000  2.8734282540103646E+001
       H  2.2413851024005879E+001  5.4388741677173362E+000  1.7110154308500896E+001
       H  2.1915657292456633E+001  4.0147091758747848E+000  1.6487571818662136E+001
       O  2.2465670954595065E+001  4.8192261827125957E+000  1.6297328977109519E+001
       H  1.4445306038013122E+001  2.2149751353322351E+001  1.1936183176057394E+001
       H  1.4250339260527399E+001  2.3206254628603787E+001  1.2983813693117826E+001
       O  1.3751565346385648E+001  2.2613856887175729E+001  1.2370353780038982E+001
       H  3.3495615324225376E+000  4.2776361692218998E+000  5.5741242607372854E+000
       H  2.6425905790581945E+000  5.4868136440347506E+000  6.0936116829878042E+000
       O  3.4973563477382128E+000  5.2715312088236876E+000  5.6720727642256961E+000
       H  1.7242755844248922E+001  2.2240793505182488E+001 -8.0703381447651825E+000
       H  1.7121567142276604E+001  2.1637665413090758E+001 -6.7098017563827099E+000
       O  1.7594752013945552E+001  2.2314670072272730E+001 -7.1907771555016566E+000
       H  3.2042770913143577E+000  3.5120052311188296E+001  1.3966222010135589E+001
       H  4.6079893213572323E+000  3.5069732821243974E+001  1.3677087867144394E+001
       O  3.7910278184256678E+000  3.5643551912992727E+001  1.3536431111483378E+001
       H  9.3711766371941660E+000  2.0763462174795220E+000  1.3046310188306562E+001
       H  1.0372805636068449E+001  2.5479941989347648E+000  1.3978792719105629E+001
       O  1.0163746731980567E+001  1.7306838387173620E+000  1.3545305649855127E+001
       H  1.1542885423143421E+001  1.6065388983460206E+001 -1.8596076861218442E+001
       H  1.2728856940764690E+001  1.6742911556305415E+001 -1.8153299843477214E+001
       O  1.1989708181324675E+001  1.6277732623562454E+001 -1.7748952533706593E+001
       H -8.9034254904891341E+000  1.2969907997514737E+001  4.9602179679418521E+000
       H -8.1812602150550440E+000  1.3485835902324425E+001  6.1807262967606125E+000
       O -8.7798748415706065E+000  1.3797159114882612E+001  5.3825049812820609E+000
       H  7.5631176595089036E+000  3.4067282941431195E+001  1.4139445044367612E+001
       H  7.3981804573208816E+000  3.5436513619907778E+001  1.3711261187397211E+001
       O  7.0723129933757827E+000  3.4872540063463433E+001  1.4402904333418928E+001
       H  6.5494103193784108E+000  7.6216471908839676E+000  1.3473336122653787E+001
       H  7.3687255339776359E+000  6.3306532431639386E+000  1.3812503857782449E+001
       O  6.9040593239080223E+000  7.0577789239361559E+000  1.4199931347770272E+001
       H -1.7458568594688717E-001  1.9283833250852187E+001  3.7647129414592495E-001
       H -1.5746943041084023E+000  2.0039662260078426E+001  8.3869160311415381E-001
       O -8.0276900311737842E-001  1.9468960605111793E+001  1.1030877690485799E+000
       H -4.9063284678257064E+000  1.7173965991556422E+001  2.1901845683714406E+001
       H -4.4960215416302232E+000  1.8432953738975154E+001  2.2699490237180964E+001
       O -4.8833696795616550E+000  1.8142702964978593E+001  2.1789984656445707E+001
       H  1.9006621846278154E+001 -4.9933320714249041E-001  6.4083248729165057E+000
       H  1.9466245444310630E+001 -1.8901655583109520E+000  6.9106734201356037E+000
       O  1.8816806692838249E+001 -1.4585602592040912E+000  6.3793282210340427E+000
       H -3.0962785773622223E+001  7.2106776653931544E+000  2.3458820186063267E+001
       H -3.2365977890625750E+001  6.6851206999907120E+000  2.4124467860491823E+001
       O -3.1982884668229190E+001  7.0723148234885729E+000  2.3323998165060505E+001
       H  1.2468370858855360E+001  8.6375890633105641E+000  1.3296112245595143E+001
       H  1.0988750550852835E+001  8.8352414075751700E+000  1.4005495623443077E+001
       O  1.1659415038712615E+001  8.1899166424977494E+000  1.3657287150993794E+001
       H  1.7803909143654913E+001 -1.6738388374290395E+001  2.6095831635359698E+001
       H  1.6577086991348331E+001 -1.6479100059599777E+001  2.7005449934066501E+001
       O  1.7166986776771317E+001 -1.7146763050158604E+001  2.6683266127573898E+001
       H -5.6737169833601241E-002  1.7985838746177933E+001 -6.0896732166411782E+000
       H -9.3839926833185294E-001  1.6712202475583762E+001 -5.7107139987250939E+000
       O -4.5398952808183773E-001  1.7178458071790956E+001 -6.4419436305195097E+000
       H  1.7540967856454472E+001  1.1656249430367170E+001  1.7193269265701876E+001
       H  1.6153268947609394E+001  1.2221024153188363E+001  1.6840366050513783E+001
       O  1.6787008530813743E+001  1.1530883153033294E+001  1.6646137156343421E+001
       H  3.1600603487460721E+000  9.9890174129436904E+000  2.5892065718604833E+001
       H  2.3105240306296935E+000  1.1271253557343492E+001  2.5729414682404482E+001
       O  3.1772617590323553E+000  1.0948942085793727E+001  2.5439744853076565E+001
       H  1.7014144078301194E+000 -7.9698018324206839E+000 -2.9618653019052905E+000
       H  1.5012877280420163E+000 -6.6661151489159050E+000 -2.6305997324667669E+000
       O  1.5391678038448728E+000 -7.4933986400791506E+000 -2.1099265439084287E+000
       H  2.9825315030776576E+000  8.0632978951485228E+000  1.4881767792482556E+001
       H  2.8810864311706754E+000  8.7553852528463505E+000  1.6294877832361877E+001
       O  3.4876810404379301E+000  8.3501371979377019E+000  1.5564207952122905E+001
       H  8.1603885086571992E+000  2.5106263788535880E+001  3.1027524610873328E+001
       H  8.9490016560482832E+000  2.4016260801682780E+001  3.1668084304396697E+001
       O  8.0465598830775047E+000  2.4171015855677858E+001  3.1222702059906016E+001
       H  9.5508798789856844E+000  3.3120319316815873E+001 -7.4322238903092197E-001
       H  9.8654598195565075E+000  3.1999806659504003E+001 -1.5844476408024697E+000
       O  9.0654027974484332E+000  3.2421360048128534E+001 -1.1900775177077756E+000
       H  1.0008002593667067E+000  1.0610614916064783E+001  1.3485280936335492E+001
       H  2.4449711349708814E+000  1.0362070054129426E+001  1.3479899905282901E+001
       O  1.8362419814514142E+000  1.0905352084013940E+001  1.3867906239713609E+001
       H  1.5547750081883954E+001  1.1340960544602304E+001 -1.7206829264323016E+001
       H  1.5598576822776513E+001  1.0191316385816272E+001 -1.8150167816377440E+001
       O  1.4954714191214556E+001  1.0812819813629760E+001 -1.7783362728436828E+001
       H  1.1174978772673640E+001 -2.1709045521250312E+000  1.6439323581234326E+001
       H  1.1922347133859837E+001 -3.4835643154888292E+000  1.6880934896422424E+001
       O  1.1570655715665334E+001 -2.6610781308830984E+000  1.7141616437403762E+001
       H  1.3856760352419267E+001  4.0860622959481665E+000  2.0557570888519489E+001
       H  1.2756563158687991E+001  5.2733066264806503E+000  2.0727953528286459E+001
       O  1.3618967300945711E+001  4.9132628367918487E+000  2.1184550012807399E+001
       H  2.9151975262719695E+001 -1.3726192095027763E+000  2.2224213178320340E+001
       H  2.8288417078770486E+001 -6.8302176158900596E-001  2.3113775897176161E+001
       O  2.9225213743743200E+001 -9.9799544036330101E-001  2.3089533874623353E+001
       H  1.6973424132714513E+001  1.5557096042738705E+001  1.6120811973121853E+001
       H  1.7705185497291460E+001  1.4376362115168551E+001  1.6329767675058552E+001
       O  1.7151439837687565E+001  1.4764020078464490E+001  1.5683509961021880E+001
       H  1.1057754949774147E+001  5.6870718796655453E+000 -5.5013707394128684E+000
       H  1.1710361870836667E+001  4.4791127041324765E+000 -6.2286912971669661E+000
       O  1.0864257675449380E+001  4.8129210733182024E+000 -5.8474322701136332E+000
       H -1.6189429085374087E+000  1.0483551988144143E+001 -4.6322793485908322E+000
       H -2.3082070878465597E+000  1.1693092834038310E+001 -5.3529805273546618E+000
       O -1.5873050840322793E+000  1.0988778632750016E+001 -5.5068868006419134E+000
       H  9.1918982655734940E+000  8.3560588236574098E+000  1.0485976362124697E+001
       H  8.5207300781003426E+000  7.6097046108556485E+000  9.4555615415973424E+000
       O  9.0577814908861232E+000  7.4356565744389709E+000  1.0202416319860383E+001
       H -1.4046544901631490E+001 -2.4166205492201067E+000  4.4593102444166748E+000
       H -1.4785424232910076E+001 -2.0351088197267502E+000  2.9867177705449741E+000
       O -1.3899709133768400E+001 -2.2556754842900175E+000  3.4916472447362827E+000
       H  8.3769763965221999E-001  8.3840508140253078E+000 -7.7446669598944062E+000
       H  8.2697572304297751E-001  7.5280796805568846E+000 -6.4438175294553703E+000
       O  1.2683517737168539E+000  8.2557201467551558E+000 -6.8924195095852605E+000
       H  1.3830032629467379E+001  9.2526096261323421E+000  7.0610802786805218E+000
       H  1.4664624116517313E+001  1.0459420314831553E+001  7.7728108701933261E+000
       O  1.4767043290391356E+001  9.5114512963415496E+000  7.2894553958111485E+000
       H  3.1234734114209770E+000  1.1432446394751821E+001  1.2446582747373234E+000
       H  3.6803028965742293E+000  1.0846830948431425E+001  2.5423967314793527E+000
       O  3.9080611530862774E+000  1.1148024274380928E+001  1.6929169358600979E+000
       H  1.2889003821684375E+001  1.3402710482809891E+001 -6.2897264676041678E+000
       H  1.3770974394056108E+001  1.4121653511860982E+001 -5.4726887762790968E+000
       O  1.3751415278031850E+001  1.3819965571537439E+001 -6.3528977967149878E+000
       H  1.3972483093934150E+001  1.8968859808331931E+001  1.4400724592761648E+001
       H  1.3924900094383380E+001  1.9949109707802361E+001  1.5404853719910435E+001
       O  1.3294910089902890E+001  1.9433706980536115E+001  1.4890049525496739E+001
       H  6.0438044815275500E+000 -6.6399342662574048E+000 -1.1949343201879174E+001
       H  6.5014340951503522E+000 -5.1676061876965216E+000 -1.1879633136922511E+001
       O  6.0098867738939630E+000 -5.8236898066691305E+000 -1.1418027939998046E+001
       H  7.7902947364184101E+000  8.5601875010765642E+000  3.0949623765346010E+000
       H  8.3639924402034342E+000  7.1839805259404752E+000  2.6561624486210285E+000
       O  8.5310520093332460E+000  7.8776645313504714E+000  3.3006643816934549E+000
       H  1.0703653094382187E+001  1.0414650996535119E+001  9.2170699220306940E+000
       H  1.1321489375703269E+001  1.1182315374987231E+001  1.0414668412399280E+001
       O  1.1223751539605441E+001  1.0278055130114703E+001  1.0082793114847538E+001
       H  7.1573266722683515E-001  2.3985755346907323E-001 -9.4073467940191566E+000
       H -4.0044878449981558E-001  1.2097266783827010E+000 -9.7157320504251494E+000
       O  1.3690252124139346E-001  9.1781990904787203E-001 -9.0027538294832752E+000
       H  3.3326626548027503E+000  1.5159854857740696E+001  4.6607717280467806E+000
       H  2.9535356533291344E+000  1.3672809422935014E+001  5.0029484941096865E+000
       O  3.1132991190414332E+000  1.4598495664724773E+001  5.3882992779973513E+000
       H -7.9611373425090468E+000 -5.2276697047713290E+000  1.5284720213314722E+001
       H -6.8106323677225484E+000 -6.2531923228894586E+000  1.5116909873258338E+001
       O -7.0074279442268876E+000 -5.2938537272689512E+000  1.5182365420506951E+001
       H  1.7008362536370214E+001  4.2072403138363990E-001  1.4458897916889503E+001
       H  1.6356764287848215E+001  4.5831180071416522E-001  1.3054866850817916E+001
       O  1.6750398187202059E+001  1.0520729298944567E+000  1.3789309026200094E+001
       H  1.7931628476246484E+001 -4.9703302134767222E+000  2.9992484802674653E+001
       H  1.6350995744527154E+001 -5.0367667408692860E+000  3.0370205835281801E+001
       O  1.7013426470322404E+001 -5.1967244071965144E+000  2.9681950524820927E+001
       H  1.9083237605517166E+001  1.3777558855335148E+000  2.1474466316630146E+001
       H  1.8783029481470304E+001  1.9410192763269709E+000  2.2882236720783283E+001
       O  1.9405361151883302E+001  1.4288799179888472E+000  2.2397231750748947E+001
       H  9.8253942113588906E+000  6.0428175273996326E-002 -3.2736464678796429E+000
       H  1.1145501329276149E+001 -5.6154938010200661E-001 -3.5679280216574427E+000
       O  1.0245720348221957E+001 -8.1361763717661817E-001 -3.6529711484119547E+000
       H  8.3064749302368277E+000 -5.5938530955910144E+000 -2.8863560914929036E+000
       H  7.6124259007112967E+000 -6.2175493041244465E+000 -4.0762281546557908E+000
       O  8.5010846222819012E+000 -5.8825622757359994E+000 -3.7594788208441603E+000
       H  3.4534099443369612E+001  1.7709942747922199E+001  1.6827617517578954E+001
       H  3.2991749699943277E+001  1.7732733329203803E+001  1.6735968119079317E+001
       O  3.3777303476511527E+001  1.7188788546961987E+001  1.7010650594039749E+001
       H  1.8440622941482637E+001  9.8032462613229132E+000  9.0401752989785908E+000
       H  1.7868293432361074E+001  1.1004519480700131E+001  8.2596838122315859E+000
       O  1.7603252304136252E+001  1.0408333175579244E+001  8.9805502946571085E+000
       H  8.0071732969746154E+000 -5.2472343734237459E+000  1.0268481466249867E+001
       H  8.1504022126740914E+000 -6.8513536708148317E+000  9.9438314409602491E+000
       O  8.4752493938847682E+000 -6.0858296473479170E+000  1.0553681582784268E+001
       H -2.1460365147839283E-001  4.2055610830638841E+000  6.8408803593121332E+000
       H -9.1739521960348805E-002  3.9106954108902086E+000  5.2779823889192965E+000
       O -1.9997707590412639E-002  3.4934325529941197E+000  6.1786915096256392E+000
       H  1.4975569965184990E+001 -1.3464409226946213E+001 -3.3999353584553273E+000
       H  1.4018958767668433E+001 -1.2543718057826107E+001 -3.0452105410627293E+000
       O  1.4279427630528097E+001 -1.2957922252842605E+001 -3.9080323188210193E+000
       H  2.2866825608730814E+001 -1.5806596004239708E+000 -8.7196812431960180E-001
       H  2.1460555299774118E+001 -2.4577524731081359E+000 -1.0198151291600817E+000