 # Version information for this restart file 
 # current date 2025-03-29 17:50:25.603
 # current working dir /ccc/scratch/cont003/gen2309/sicilana/NPT/128_H2O_4_NaCl_10_wt_673K_1000bar/BATCH_10_MD_T_673_P_1000_steps_1000_dt_0.5_NH2O_128_NaCl_4_abc_17.19_17.19_17.19_wt_9.20
 # Program compiled at                                       2024-10-31 15:04:21
 # Program compiled on                                                 topaze131
 # Program compiled for                                                   x86_64
 # Source code revision number                                                  
 &GLOBAL
   PRINT_LEVEL LOW
   PROJECT_NAME "brines"
   RUN_TYPE MD
   FLUSH_SHOULD_FLUSH T
 &END GLOBAL
 &MOTION
   &MD
     ENSEMBLE NPT_I
     STEPS 1000
     TIMESTEP  4.9999999999999994E-001
     STEP_START_VAL 25450
     TIME_START_VAL  1.2725000000007305E+004
     ECONS_START_VAL -2.4590398713531335E+003
     TEMPERATURE  6.7300000000000011E+002
     &BAROSTAT
       PRESSURE  1.0000000000000000E+003
       TIMECON  9.9999999999999986E+001
       &VELOCITY
           2.4864915493770643E-006
       &END VELOCITY
       &MASS
           4.2836593343398705E+007
       &END MASS
       &THERMOSTAT
         TYPE CSVR
         &CSVR
           TIMECON  4.8377686530095694E+001
           &THERMOSTAT_ENERGY
              -5.5693253306728942E-004
           &END THERMOSTAT_ENERGY
           &RNG_INIT
 Wiener process for Thermostat # 1        1 F T F  -4.8480003456160087E-01        2507513087.0        2482700844.0        1176539424.0        3914095006.0        1278783378.0         685080785.0             12345.0             12345.0             12345.0             12345.0             12345.0             12345.0             12345.0             12345.0             12345.0             12345.0             12345.0             12345.0
           &END RNG_INIT
         &END CSVR
       &END THERMOSTAT
     &END BAROSTAT
     &THERMOSTAT
       TYPE CSVR
       &CSVR
         TIMECON  4.9999999999999994E+002
         &THERMOSTAT_ENERGY
            -7.8683217416688800E-001
         &END THERMOSTAT_ENERGY
         &RNG_INIT
 Wiener process for Thermostat # 1        1 F T F  -1.0735356904565865E+00        1132013357.0        3492143162.0        4108850993.0        3301553239.0        2091026455.0        1870384812.0             12345.0             12345.0             12345.0             12345.0             12345.0             12345.0             12345.0             12345.0             12345.0             12345.0             12345.0             12345.0
         &END RNG_INIT
       &END CSVR
     &END THERMOSTAT
     &AVERAGES T
       &RESTART_AVERAGES
         ITIMES_START 1
         AVECPU  2.2861095919994863E+001
         AVEHUGONIOT  0.0000000000000000E+000
         AVETEMP_BARO  3.0071286689976080E+002
         AVEPOT -2.4597080031523974E+003
         AVEKIN  1.2252208552962560E+000
         AVETEMP  6.5966527567692890E+002
         AVEKIN_QM  0.0000000000000000E+000
         AVETEMP_QM  0.0000000000000000E+000
         AVEVOL  3.8302002266789248E+004
         AVECELL_A  3.3636257056653626E+001
         AVECELL_B  3.3636257056653626E+001
         AVECELL_C  3.3636257056653626E+001
         AVEALPHA  9.0000000000000000E+001
         AVEBETA  9.0000000000000000E+001
         AVEGAMMA  9.0000000000000000E+001
         AVE_ECONS -1.2315098513978872E+002
         AVE_PRESS  3.7120742873613654E+002
         AVE_PXX  3.3641699411682833E+002
       &END RESTART_AVERAGES
     &END AVERAGES
   &END MD
   &PRINT
     &TRAJECTORY SILENT
       FILENAME =brines-1.xyz
       &EACH
         MD 1
       &END EACH
     &END TRAJECTORY
     &CELL SILENT
       FILENAME =brines-1.cell_xyz
       &EACH
         MD 1
       &END EACH
     &END CELL
     &VELOCITIES SILENT
       FILENAME =brines-1.vel
       &EACH
         MD 1
       &END EACH
     &END VELOCITIES
     &FORCES SILENT
       FILENAME =brines-1.force
       &EACH
         MD 1
       &END EACH
     &END FORCES
     &STRESS SILENT
       FILENAME =brines-1.stress
       &EACH
         MD 1
       &END EACH
     &END STRESS
     &RESTART SILENT
       FILENAME =brines-1.restart
       &EACH
         MD 1
       &END EACH
     &END RESTART
     &RESTART_HISTORY SILENT
       &EACH
         MD 50
       &END EACH
     &END RESTART_HISTORY
   &END PRINT
 &END MOTION
 &FORCE_EVAL
   METHOD QS
   STRESS_TENSOR ANALYTICAL
   &DFT
     BASIS_SET_FILE_NAME /ccc/work/cont003/gen2309/sicilana/DATA_CP2K/GTH_BASIS_SETS
     POTENTIAL_FILE_NAME /ccc/work/cont003/gen2309/sicilana/DATA_CP2K/GTH_POTENTIALS
     &SCF
       MAX_SCF 50
       EPS_SCF  9.9999999999999995E-008
       &OT T
         MINIMIZER DIIS
         PRECONDITIONER FULL_SINGLE_INVERSE
       &END OT
       &OUTER_SCF T
         EPS_SCF  9.9999999999999995E-008
         MAX_SCF 50
       &END OUTER_SCF
     &END SCF
     &QS
       EPS_DEFAULT  1.0000000000000000E-014
       EPSFIT  1.0000000000000000E-004
       EPSISO  9.9999999999999998E-013
       EPSRHO0  9.9999999999999995E-007
       QUADRATURE GC_LOG
       EXTRAPOLATION ASPC
       METHOD GAPW
     &END QS
     &MGRID
       NGRIDS 4
       CUTOFF  5.0000000000000000E+002
       REL_CUTOFF  6.0000000000000000E+001
     &END MGRID
     &XC
       DENSITY_CUTOFF  1.0000000000000000E-010
       GRADIENT_CUTOFF  1.0000000000000000E-010
       TAU_CUTOFF  1.0000000000000000E-010
       &XC_FUNCTIONAL NO_SHORTCUT
         &PBE T
           PARAMETRIZATION REVPBE
         &END PBE
       &END XC_FUNCTIONAL
       &VDW_POTENTIAL
         POTENTIAL_TYPE PAIR_POTENTIAL
         &PAIR_POTENTIAL
           TYPE DFTD3
           PARAMETER_FILE_NAME /ccc/work/cont003/gen2309/sicilana/DATA_CP2K/dftd3.dat
           REFERENCE_FUNCTIONAL "PBE"
           CALCULATE_C9_TERM T
           REFERENCE_C9_TERM T
           VERBOSE_OUTPUT T
           D3_EXCLUDE_KIND 3
         &END PAIR_POTENTIAL
       &END VDW_POTENTIAL
     &END XC
     &REAL_TIME_PROPAGATION
       INITIAL_WFN RT_RESTART
     &END REAL_TIME_PROPAGATION
     &PRINT
       &MO_CUBES SILENT
         WRITE_CUBE F
         NLUMO 10
         NHOMO 2
         &EACH
           MD 200
         &END EACH
       &END MO_CUBES
     &END PRINT
   &END DFT
   &SUBSYS
     &CELL
       A  1.8767330669775660E+001  0.0000000000000000E+000  0.0000000000000000E+000
       B  0.0000000000000000E+000  1.8767330669775660E+001  0.0000000000000000E+000
       C  0.0000000000000000E+000  0.0000000000000000E+000  1.8767330669775660E+001
       MULTIPLE_UNIT_CELL 1 1 1
     &END CELL
     &COORD
       H  8.8294357657687641E+000  2.3213522154963325E+001 -1.4225030950600681E-001
       H  8.6986583105450261E+000  2.3229152846780714E+001  1.2476942636309767E+000
       O  9.4080769838951426E+000  2.3079205291057125E+001  5.8887189364053394E-001
       H  8.9489193549882096E+000 -7.2121835720965217E+000  2.5715436235809950E+000
       H  9.1953248332831219E+000 -7.8567402280809260E+000  1.2292011050735423E+000
       O  8.7018203890119779E+000 -7.0417523242593409E+000  1.6236190675126843E+000
       H -1.0508544302475956E+001  4.6647350230464049E+001  4.6967455549268948E+001
       H -1.0080244994312167E+001  4.7363643040366931E+001  4.5662310623516063E+001
       O -1.0601567514888655E+001  4.7464722615657806E+001  4.6519683995218024E+001
       H  7.5784014763607095E+000  2.2757903698005780E+001  2.5577946082942475E+001
       H  7.9402246600501503E+000  2.3719477335004385E+001  2.6619511241379080E+001
       O  8.3472981237023891E+000  2.3226563388186957E+001  2.5946954087715323E+001
       H -8.3071875075843860E+000  5.9334349666454171E+000  6.2737291933607828E+000
       H -7.6143864359775169E+000  5.6276282338739110E+000  7.4161120377892757E+000
       O -7.6442695912586194E+000  6.3807885033075813E+000  6.8732987619128743E+000
       H  3.3757637307129365E+001  2.5732458518162865E+001 -6.9010954224737908E+000
       H  3.2213093548616484E+001  2.5500227507875987E+001 -7.1561957128185849E+000
       O  3.2820185489573710E+001  2.6142799575549184E+001 -6.7995643849799823E+000
       H -5.3193752283500642E+000  4.9242319382205917E+000  8.4699539709264169E+000
       H -5.9681674370496589E+000  3.7540661313077748E+000  9.3068441800012121E+000
       O -5.7922894772368814E+000  4.0196947074046205E+000  8.3892655490627526E+000
       H  2.4613057168782611E+001  4.3294878770132810E+000  1.6286741197371322E+000
       H  2.4669424869975341E+001  4.1972532730798875E+000  2.0756870342348407E-001
       O  2.5246607315870023E+001  3.9283341841537451E+000  9.9933465443368519E-001
       H  2.0739042092191571E+001  1.4036947676645426E+001  1.4478026216344679E+001
       H  2.1183556064368844E+001  1.2768509594328119E+001  1.3890393158093152E+001
       O  2.1282570078169094E+001  1.3751183498207157E+001  1.3753681371037858E+001
       H  2.2758399472624088E+001  3.2693500928527375E-001  2.0795134581468119E+001
       H  2.3328787520698633E+001 -1.1227289046737572E+000  2.0282454852887629E+001
       O  2.2542750481851350E+001 -4.3497107750360831E-001  2.0181458688256910E+001
       H  1.0116453945646807E+001 -1.8798847571139423E+000 -7.3143586851826932E+000
       H  8.8751413485058315E+000 -2.6053992067348020E+000 -7.8027160715261576E+000
       O  9.2522162592407771E+000 -1.7324626562311867E+000 -7.9179688940527670E+000
       H  1.2060536957316197E+001  2.0671373599749034E+000  1.9717814960987770E+001
       H  1.1317150165122571E+001  3.3771612336330463E+000  1.9936783115731913E+001
       O  1.2151593522643559E+001  2.8675000951008522E+000  2.0228767546650914E+001
       H  1.5615945884691929E+001  1.6353695574088583E+001  5.7080877680895101E+000
       H  1.7121030954128894E+001  1.6437301025200124E+001  5.1281671918317926E+000
       O  1.6314300740653728E+001  1.5841301661826742E+001  5.1461869407679321E+000
       H  5.2072743194034219E+000 -1.1047253284805006E+001  1.8354527770415971E-001
       H  4.1284110164635166E+000 -1.0149795214256153E+001 -6.9004277408843906E-001
       O  5.1173733357367528E+000 -1.0223354123048029E+001 -4.2069090130573439E-001
       H  3.0255670726143702E+001  3.3367588300109617E+001 -1.0411838788727017E-001
       H  3.1226309649900923E+001  3.2581886037102073E+001 -8.9872728962315329E-001
       O  3.0444323566135008E+001  3.2438500967453599E+001 -3.9701139851662653E-001
       H  1.4031948608972508E+001  1.8442027678448472E-001 -9.1795328124603000E+000
       H  1.2441045728417196E+001  6.6707752583959379E-001 -9.6344561163994431E+000
       O  1.3123557609374480E+001  5.3737381850888422E-001 -8.8887185506766766E+000
       H  2.1362018720508217E+001  1.3553331042225918E+000  6.2175105040056673E+000
       H  2.0385360569362156E+001  1.3961915990111140E+000  5.0855456454660413E+000
       O  2.1322912684162784E+001  1.6172822070640025E+000  5.3002877834428270E+000
       H  8.4263526755560001E+000 -2.8126509118750063E+000  1.6926173182187302E+001
       H  8.0501948547344870E+000 -1.8805667202458203E+000  1.8097019448720722E+001
       O  7.7458373113956238E+000 -2.6916516706605207E+000  1.7621997270580358E+001
       H  4.4482569035660777E+000  1.7499176145387487E+001  7.8696345716492546E+000
       H  5.8034774194751311E+000  1.6619431295083800E+001  8.1354483324168498E+000
       O  4.7830984001015011E+000  1.6620635007927813E+001  7.9578429168258316E+000
       H  1.9662802097125763E+001  2.6407519895179366E+001  3.8795329695078880E+000
       H  2.0968763273521791E+001  2.6124436592886301E+001  4.2990079843225661E+000
       O  2.0567979054989852E+001  2.6495196912268923E+001  3.5275337600215328E+000
       H  1.5379492776724915E+001  7.3981528177796374E+000  2.1074469368230623E+001
       H  1.5332745829060165E+001  8.6805831697562414E+000  2.0322388186804989E+001
       O  1.5791976116738489E+001  8.3273546968228782E+000  2.1066623192269098E+001
       H  8.1998848094039083E+000 -1.2485938801558065E+001  1.6378323749330832E+001
       H  7.1920277601263400E+000 -1.3000945693119965E+001  1.7164971184628385E+001
       O  8.1106581151848474E+000 -1.3102818332408114E+001  1.7119511922906870E+001
       H  2.9757962947734146E+001  1.1351573317326597E+001  2.4340536489363821E+001
       H  2.9663733769114074E+001  1.2199904260398659E+001  2.2952862191695456E+001
       O  2.9134584402762162E+001  1.1742526675335590E+001  2.3583630102399155E+001
       H -1.4334309106557454E+001  7.6739545606305901E+000  1.2464355001634990E+001
       H -1.5438436684669741E+001  8.7815521344821459E+000  1.2564409719242347E+001
       O -1.5095217343836879E+001  7.9515024353117694E+000  1.3033070239820429E+001
       H  1.8666424603343756E+000  5.6542602618092754E+000  7.4481086212041596E+000
       H  1.5325934856782928E+000  4.2462157763237496E+000  7.6688167461703438E+000
       O  1.7445949411135124E+000  5.0387094682493672E+000  8.1393269699262856E+000
       H -9.7620631449615036E+000 -1.5517563677360341E+001  1.6094692935334823E+001
       H -9.6355039319908222E+000 -1.6397737427562618E+001  1.4792049789099845E+001
       O -9.3332819726237783E+000 -1.6275770969018399E+001  1.5699394481833975E+001
       H  2.5089484357568857E+001  9.9882552874388502E+000 -1.2709990478351856E+000
       H  2.5626012924976528E+001  1.1386174164710313E+001 -1.3798283534322859E+000
       O  2.5564516253631822E+001  1.0591812664166465E+001 -1.8510548723493967E+000
       H  1.2964648265599131E+001 -2.2068847733595947E+000  2.5840512984800021E+001
       H  1.2850650442359255E+001 -2.4859430335007291E+000  2.4313530793799913E+001
       O  1.2543676333598095E+001 -2.7791378790701664E+000  2.5230805075635505E+001
       H -6.9361180426165649E+000  1.1335325668067162E+001 -2.0910164676412180E-001
       H -7.1823502151129865E+000  1.0631237243396370E+001  1.0932161547823198E+000
       O -6.8315459271116596E+000  1.0471188177415936E+001  1.9694129273595679E-001
       H  4.2151543389294819E+000  7.2346097489460863E+000  2.3664726803370826E+000
       H  2.8826072302377264E+000  6.9073047010754651E+000  1.3947423261074101E+000
       O  3.7655305428522547E+000  7.2069586601007236E+000  1.4794134992511476E+000
       H  6.3911808480826349E-001 -1.5272241546647094E+000  4.3429990393872231E+000
       H  1.4741020645579572E+000 -1.0703089158288304E+000  3.3514357914316104E+000
       O  1.1872046994256558E+000 -1.9075589759324194E+000  3.6640390583864995E+000
       H -4.3804441810889871E+000  2.1658756591839730E+001 -3.3750885023729564E+000
       H -3.0485948892530073E+000  2.2293407460630878E+001 -3.4816256855352283E+000
       O -3.5780321158339432E+000  2.1588791715265177E+001 -2.9204435274017335E+000
       H  2.1348370014543971E+001  2.7743184140886058E+001  9.7692661628591324E+000
       H  2.1450429961112739E+001  2.6387053010734014E+001  9.1268390303491067E+000
       O  2.0823163464660613E+001  2.7036661425558368E+001  9.4670756380154604E+000
       H  2.4020064863106940E+000 -1.7648284726071303E+001 -7.7180053012019023E+000
       H  1.2625418416883889E+000 -1.7787373915145157E+001 -6.7744867335524042E+000
       O  2.2141533460255642E+000 -1.7627719737068137E+001 -6.7189893196968917E+000
       H  1.0727030215412167E+001  4.1127173761248779E+000  1.0456851573636872E+001
       H  1.0018140183367608E+001  3.8097426366431839E+000  9.1310875769483886E+000
       O  1.0132081884782199E+001  4.5471620357830203E+000  9.8327990153892166E+000
       H  1.0226104997429143E+001  1.8714707096456301E+001 -1.7947799876299545E+001
       H  9.1030494281989593E+000  1.9511757065184035E+001 -1.8347996350531016E+001
       O  1.0029179639007278E+001  1.9439209853074743E+001 -1.8658834849540522E+001
       H  1.4726089068554495E+001 -6.4260170016492264E+000 -1.3919613271549380E+001
       H  1.5341923651649797E+001 -5.2435022520743670E+000 -1.4564073080657824E+001
       O  1.4608779638751347E+001 -5.8784178929847908E+000 -1.4705606323858156E+001
       H  1.3107859542987093E+001 -3.2220670545675723E+000  2.8892012807894428E+001
       H  1.4204948949977808E+001 -2.7127067504020386E+000  2.7954325414228567E+001
       O  1.3211486478347842E+001 -2.8564352204790522E+000  2.8014402225108871E+001
       H  2.2447052644979326E+001  4.3631559440196721E+000  1.5504926159065377E+001
       H  2.1018436299097438E+001  4.5330997423720802E+000  1.5733048573256040E+001
       O  2.1724581260349286E+001  3.9986010079677126E+000  1.5983230822092720E+001
       H  1.3441342313651697E+001  2.1500578058054980E+001  1.1929951452732471E+001
       H  1.4515973878622731E+001  2.2526690998830755E+001  1.1722456821572960E+001
       O  1.3540789652031417E+001  2.2462638611134935E+001  1.1896917756685768E+001
       H  3.5582576130634580E+000  3.8791028237805563E+000  5.1898328848968722E+000
       H  2.8466201111232383E+000  4.6300265453104759E+000  4.0883679860390458E+000
       O  3.4471977769102518E+000  4.7642607483067216E+000  4.7935847735370833E+000
       H  1.7160893471090720E+001  2.1763214700179731E+001 -7.9341458896822692E+000
       H  1.7679971337418152E+001  2.1478918553581771E+001 -6.4813241482217565E+000
       O  1.7600394932782589E+001  2.2122525437579508E+001 -7.1706004353747437E+000
       H  3.9114323529554076E+000  3.4408255983702134E+001  1.4355683011750171E+001
       H  5.0623429250723158E+000  3.5499728152986862E+001  1.4477427411178535E+001
       O  4.1275611999362916E+000  3.5360864047168732E+001  1.4477132114634552E+001
       H  1.1668537184615378E+001  1.3355638377464176E+000  1.2499528924188574E+001
       H  1.0415067148072859E+001  1.9625966696826993E+000  1.1759124244752361E+001
       O  1.0750054605545072E+001  1.7171868540152080E+000  1.2603417672752684E+001
       H  1.2842958057270215E+001  1.7308131532478381E+001 -1.8581827555349644E+001
       H  1.3037641938787374E+001  1.6863574159275046E+001 -1.7116412981539163E+001
       O  1.2420232613500707E+001  1.6878300242624515E+001 -1.7814809469329155E+001
       H -8.1491484499957476E+000  1.3623458587947361E+001  5.4000111797634451E+000
       H -7.8564739872763099E+000  1.5025925477516829E+001  5.7666889039934492E+000
       O -8.5621885227141270E+000  1.4429844486134959E+001  5.7479944622843782E+000
       H  9.0485772591493099E+000  3.4247903919092984E+001  1.4429512156141719E+001
       H  8.8835527347983110E+000  3.5818351686732491E+001  1.4391202149966146E+001
       O  8.5055434066673890E+000  3.4967965111024967E+001  1.4738626301468969E+001
       H  6.3852264205982934E+000  7.4287115688553484E+000  1.4455313187861728E+001
       H  5.5656427844043375E+000  6.5086219191412287E+000  1.5435560106004663E+001
       O  6.3669222560739271E+000  6.5057136887791254E+000  1.4907521080041674E+001
       H -4.8910750457017538E-001  1.9379095399922726E+001 -4.5301370018806592E-001
       H -1.6958125188916429E+000  1.9515426307297453E+001  1.6355014206941673E-001
       O -8.0804190973530843E-001  1.9135183333600715E+001  4.5443189678995322E-001
       H -3.9992359502784267E+000  1.7130395053300898E+001  2.3208689804238340E+001
       H -4.6435317022073299E+000  1.7941537323821876E+001  2.2071264613654023E+001
       O -4.8063163743269062E+000  1.7290336334821493E+001  2.2743303174497850E+001
       H  1.7572064544310049E+001 -5.3068463414727329E-001  6.3015824154953748E+000
       H  1.8664539787858988E+001 -1.6497088454308662E+000  6.6309103968147092E+000
       O  1.8112642868637526E+001 -1.2876560468686882E+000  5.8625550473212247E+000
       H -3.1452289794283953E+001  7.5917305319077153E+000  2.3066255246610289E+001
       H -3.1984958220583785E+001  6.2064686805730442E+000  2.3507391222142857E+001
       O -3.1874866500619216E+001  6.8164800556641936E+000  2.2700937644411336E+001
       H  1.0690042944257970E+001  8.9633383171004315E+000  1.2416362933199153E+001
       H  1.0179881230819598E+001  8.9279635586382309E+000  1.3946189062643805E+001
       O  1.0626480909252884E+001  8.4449342173131097E+000  1.3214389650949679E+001
       H  1.7127941683372168E+001 -1.7034638138607765E+001  2.4968155296762109E+001
       H  1.6984863978474756E+001 -1.7258293493601698E+001  2.6451613284638015E+001
       O  1.7495614943059053E+001 -1.7590403035259300E+001  2.5723272064094893E+001
       H  4.5360518015612694E-001  1.5630546581554521E+001 -5.0773350202747132E+000
       H  2.8144860722842591E-001  1.7082434211860555E+001 -5.4143252201264351E+000
       O -2.6671672713414467E-002  1.6203408543047001E+001 -5.6930545712282559E+000
       H  1.8575678277457023E+001  1.1247066676686883E+001  1.4763550225055546E+001
       H  1.8299194173030251E+001  1.0928154301217186E+001  1.6411918399711858E+001
       O  1.7988332591419258E+001  1.0844466577606081E+001  1.5418659903655829E+001
       H  3.9239930372680636E+000  1.0144111894582128E+001  2.6025420225941343E+001
       H  2.4846540050614685E+000  1.0137887962231577E+001  2.6235236117446384E+001
       O  3.1617973948513063E+000  9.7602418945501626E+000  2.5662784760862255E+001
       H  2.4208650379845986E+000 -6.5282143047814873E+000 -1.3808486871496197E+000
       H  2.3772976581714982E+000 -7.8235392798423140E+000 -4.3498864415516530E-001
       O  2.1626849825776375E+000 -7.4616814130322080E+000 -1.3090219190448151E+000
       H  3.8123989433083607E+000  8.7747793101243765E+000  1.6173311445366462E+001
       H  2.6634028447253497E+000  9.6442327125891243E+000  1.6683512812878686E+001
       O  3.0188991883760279E+000  8.7856662658613818E+000  1.6674019425069801E+001
       H  7.7723516044761549E+000  2.3678357633386263E+001  3.1023254822109401E+001
       H  8.3348565019369936E+000  2.2387555756949993E+001  3.1814080187347269E+001
       O  7.4980696883084104E+000  2.2833016456841467E+001  3.1503347572704076E+001
       H  8.2242730040428906E+000  3.1835838954781870E+001 -6.1343945923769261E-001
       H  9.6555116388815403E+000  3.1824725648229919E+001 -1.2336893825986390E+000
       O  8.7219445111730618E+000  3.1829879892250887E+001 -1.4693561991533137E+000
       H  9.0717476040347012E-001  1.0446517911610627E+001  1.2633170422998916E+001
       H  7.8277348421611548E-001  1.1968992043643805E+001  1.1964877546038771E+001
       O  1.0304454865732766E+000  1.1390828211360656E+001  1.2812955431398864E+001
       H  1.5375956525068871E+001  1.1425973335703857E+001 -1.7323683025969899E+001
       H  1.3947528257722018E+001  1.1334016214963219E+001 -1.7932816041069561E+001
       O  1.4926965358655838E+001  1.1098125401826739E+001 -1.8086132972217793E+001
       H  1.1798557643843864E+001 -1.1462211968156517E+000  1.6032879175664032E+001
       H  1.0618614091715980E+001 -1.9600112542176231E+000  1.6431541799602325E+001
       O  1.1607599151887612E+001 -1.8929060716117432E+000  1.6627399737706853E+001
       H  1.4279415623035559E+001  5.5186275668002560E+000  1.9886150804383078E+001
       H  1.3288117378123037E+001  6.4106012637804648E+000  2.0616240293737576E+001
       O  1.4216302726524210E+001  6.0393880386216967E+000  2.0685792880067410E+001
       H  2.9130712664042310E+001 -7.8034679244613858E-001  2.1978755264242629E+001
       H  2.9848745256639351E+001 -4.7958040517086120E-001  2.3121875392947985E+001
       O  2.9153045282409181E+001 -1.1894546672497019E+000  2.2863147542666944E+001
       H  1.9260172529238879E+001  1.6110068212409711E+001  1.6093662045631767E+001
       H  1.9634508925203306E+001  1.4681064290246855E+001  1.6668265783303031E+001
       O  1.9451683720010568E+001  1.5204035153858559E+001  1.5886670112921641E+001
       H  1.0705541389230662E+001  5.9574492165911899E+000 -6.0625464168607461E+000
       H  1.1053625569913400E+001  4.5517875886699928E+000 -5.6472079156640858E+000
       O  1.0406727373019301E+001  5.0643404362356703E+000 -6.2478806066352828E+000
       H -2.8853554527654439E+000  1.1257718995285346E+001 -5.2791278466629805E+000
       H -2.1368686897998632E+000  1.2556736541660172E+001 -5.1115331192820364E+000
       O -2.7160116836767414E+000  1.2025961563099886E+001 -5.7625149208300863E+000
       H  8.6385625881254242E+000  7.8438039736109673E+000  1.1402531404229149E+001
       H  8.9970212676568959E+000  6.4263058035928129E+000  1.0785729437289589E+001
       O  8.5109518353584299E+000  7.2688402459431272E+000  1.0619002512478142E+001
       H -1.4021378670716022E+001 -3.1692187089897912E+000  3.6886975303905762E+000
       H -1.5477107093299903E+001 -2.5379090003855684E+000  3.9094102362344390E+000
       O -1.4940657511214305E+001 -3.2281990020519746E+000  3.4065379751068270E+000
       H  9.0384059901157232E-001  8.0186539963606513E+000 -7.4295008146970236E+000
       H -6.3200695189502762E-002  7.4774809479738602E+000 -6.6135250773094949E+000
       O  5.5848932668136453E-001  8.1854055301116802E+000 -6.5536746056403050E+000
       H  1.3551950010797007E+001  9.3843212788214245E+000  7.2935631646237473E+000
       H  1.4392425533562172E+001  1.0237895552420387E+001  8.4148972145835490E+000
       O  1.4391424525692985E+001  9.3780616832943213E+000  7.8013248982576888E+000
       H  3.8638011228380007E+000  1.0539474610309773E+001  1.4534266800115454E+000
       H  2.6942969604032982E+000  1.1573657853664979E+001  1.6639361609350156E+000
       O  3.5031213590603141E+000  1.1467952223941737E+001  1.1244710585399942E+000
       H  1.3237515596719144E+001  1.3729649088346072E+001 -6.3025321987472127E+000
       H  1.4667766391802536E+001  1.3962416236314565E+001 -5.6958822542440730E+000
       O  1.4018903330564523E+001  1.4261656531396794E+001 -6.3132630400318783E+000
       H  1.2304872083408897E+001  1.8326839489960197E+001  1.2952604637173740E+001
       H  1.3803489987644248E+001  1.8478326584218532E+001  1.3475030481777861E+001
       O  1.2815783749823618E+001  1.8680068648033263E+001  1.3693696470358988E+001
       H  6.0512721336094666E+000 -4.6725242773559357E+000 -1.2331500595368839E+001
       H  6.1341111683817449E+000 -5.9355566220192575E+000 -1.1512379422288364E+001
       O  5.4933597065920834E+000 -5.2917121865973717E+000 -1.1827059629612901E+001
       H  8.7270574837672097E+000  9.8433359385563559E+000  4.7277157085414920E+000
       H  8.0243469236907519E+000  9.8677680201359710E+000  3.4277897596535816E+000
       O  8.2207668849361699E+000  9.2787001955141672E+000  4.1271975598356043E+000
       H  1.1925039134397194E+001  9.4674548161652705E+000  1.0011186246577996E+001
       H  1.0775356149074645E+001  8.3869339508401417E+000  9.7689455435286625E+000
       O  1.1246756795215200E+001  8.8583677655942576E+000  1.0388091381846303E+001
       H -2.2477999884994301E-001  1.8919981137393371E-001 -9.4959477341500111E+000
       H -4.3363581575723781E-001  1.4790187625844851E+000 -8.5999818588904553E+000
       O -1.7463949848751416E-002  5.5270853088888272E-001 -8.5824875106777778E+000
       H  3.0609897156535406E+000  1.3853228778218973E+001  4.5507116045580513E+000
       H  1.9390327533039335E+000  1.3124711372801565E+001  5.4275548166827372E+000
       O  2.4717446587146030E+000  1.3956164763333179E+001  5.3114216292518890E+000
       H -6.2583770166747339E+000 -6.2400503046853526E+000  1.4880630544525744E+001
       H -5.6257201003596826E+000 -5.2609995457693390E+000  1.5915499730160855E+001
       O -6.4339832645323884E+000 -5.3826646021017961E+000  1.5332405418103855E+001
       H  1.7451090408756713E+001  5.9794421249470886E-001  1.3783606812779183E+001
       H  1.8450323113698559E+001  1.6573703542044518E+000  1.4227564727579129E+001
       O  1.7617923328820488E+001  1.5397418576436015E+000  1.3732390914381540E+001
       H  1.6305635584049323E+001 -4.8105605470221526E+000  2.9292989789164100E+001
       H  1.5058361902949292E+001 -4.4434030757134204E+000  2.9936487491608812E+001
       O  1.5777025735129040E+001 -3.9579048823894429E+000  2.9323608745229215E+001
       H  1.8925960257491958E+001  8.7699761790587838E-001  2.1157533842483819E+001
       H  1.8766337596772303E+001  1.9371579297206869E+000  2.2240909709491529E+001
       O  1.9378049564633429E+001  1.3792165647882588E+000  2.1861508665114624E+001
       H  9.9460978215294720E+000  4.1429228117532640E-001 -3.0252920823229159E+000
       H  9.8827247572792523E+000  7.1184171389520368E-001 -4.5538793872971928E+000
       O  9.5642760588430402E+000  9.1580288956420772E-002 -3.8272915932720153E+000
       H  8.1377199530987614E+000 -5.9257949959992953E+000 -3.6714249666748158E+000
       H  7.5622661569747454E+000 -6.7115385400105456E+000 -4.8508724958318368E+000
       O  8.3121378744640566E+000 -6.1627213246362640E+000 -4.5390217831980078E+000
       H  3.5249148050997483E+001  1.6190656518655945E+001  1.5401917185317743E+001
       H  3.4799927758559278E+001  1.6605238216925223E+001  1.6722489356552693E+001
       O  3.4459538580361070E+001  1.6124885572242437E+001  1.5997884274850469E+001
       H  1.7669776554358634E+001  1.1069880784164930E+001  7.2693495673634372E+000
       H  1.8980921999287727E+001  1.0267502931976418E+001  7.7112954773847289E+000
       O  1.8008475911119547E+001  1.0306167475242997E+001  7.7043231724388086E+000
       H  8.3764536408284442E+000 -5.2249481106882714E+000  9.7093719532561611E+000
       H  9.2392210934434758E+000 -6.5682070928268104E+000  9.5947861649371884E+000
       O  9.2406358267405206E+000 -5.6201406404153333E+000  9.5506167301601579E+000
       H -1.8090445458972655E+000  3.7275989645434069E+000  6.1056712847571237E+000
       H -9.3236388139216630E-001  3.7961855744071324E+000  4.9029201031888947E+000
       O -1.4964242931271716E+000  3.1622493610016345E+000  5.4174197308820187E+000
       H  1.3359418825029879E+001 -1.3020339339135855E+001 -3.1219396558785846E+000
       H  1.4284645773083259E+001 -1.2915553377391598E+001 -4.3398462459309002E+000
       O  1.3296141567021905E+001 -1.2904512209237959E+001 -4.1224808847466283E+000
       H  2.1049621834842341E+001 -1.3746737995883183E+000  4.9056919596602167E-001
       H  1.9817287147364965E+001 -1.3400008368594194E+000 -4.5974573227156407E-001