 # Version information for this restart file 
 # current date 2025-03-29 19:43:33.975
 # current working dir /ccc/scratch/cont003/gen2309/sicilana/NPT/128_H2O_4_NaCl_10_wt_673K_1000bar/BATCH_10_MD_T_673_P_1000_steps_1000_dt_0.5_NH2O_128_NaCl_4_abc_17.19_17.19_17.19_wt_9.20
 # Program compiled at                                       2024-10-31 15:04:21
 # Program compiled on                                                 topaze131
 # Program compiled for                                                   x86_64
 # Source code revision number                                                  
 &GLOBAL
   PRINT_LEVEL LOW
   PROJECT_NAME "brines"
   RUN_TYPE MD
   FLUSH_SHOULD_FLUSH T
 &END GLOBAL
 &MOTION
   &MD
     ENSEMBLE NPT_I
     STEPS 1000
     TIMESTEP  4.9999999999999994E-001
     STEP_START_VAL 25700
     TIME_START_VAL  1.2850000000007112E+004
     ECONS_START_VAL -2.4590398713531335E+003
     TEMPERATURE  6.7300000000000011E+002
     &BAROSTAT
       PRESSURE  1.0000000000000000E+003
       TIMECON  9.9999999999999986E+001
       &VELOCITY
           7.3652745259560838E-007
       &END VELOCITY
       &MASS
           4.2836593343398705E+007
       &END MASS
       &THERMOSTAT
         TYPE CSVR
         &CSVR
           TIMECON  4.8377686530095694E+001
           &THERMOSTAT_ENERGY
              -1.2484033434575939E-003
           &END THERMOSTAT_ENERGY
           &RNG_INIT
 Wiener process for Thermostat # 1        1 F T F  -7.6879123355610690E-01        3334028369.0        3428901727.0        1825547924.0         571562982.0        2234936078.0         112910132.0             12345.0             12345.0             12345.0             12345.0             12345.0             12345.0             12345.0             12345.0             12345.0             12345.0             12345.0             12345.0
           &END RNG_INIT
         &END CSVR
       &END THERMOSTAT
     &END BAROSTAT
     &THERMOSTAT
       TYPE CSVR
       &CSVR
         TIMECON  4.9999999999999994E+002
         &THERMOSTAT_ENERGY
            -7.8273284370661478E-001
         &END THERMOSTAT_ENERGY
         &RNG_INIT
 Wiener process for Thermostat # 1        1 F T F  -6.4814925525980005E-01         993022565.0         891183596.0        4130751787.0        4181202580.0        3823219151.0        3472178795.0             12345.0             12345.0             12345.0             12345.0             12345.0             12345.0             12345.0             12345.0             12345.0             12345.0             12345.0             12345.0
         &END RNG_INIT
       &END CSVR
     &END THERMOSTAT
     &AVERAGES T
       &RESTART_AVERAGES
         ITIMES_START 1
         AVECPU  2.2902850568558105E+001
         AVEHUGONIOT  0.0000000000000000E+000
         AVETEMP_BARO  3.0086374355484730E+002
         AVEPOT -2.4597110900427379E+003
         AVEKIN  1.2244489994816121E+000
         AVETEMP  6.5924970449516979E+002
         AVEKIN_QM  0.0000000000000000E+000
         AVETEMP_QM  0.0000000000000000E+000
         AVEVOL  3.8379512925079020E+004
         AVECELL_A  3.3658265044896076E+001
         AVECELL_B  3.3658265044896076E+001
         AVECELL_C  3.3658265044896076E+001
         AVEALPHA  9.0000000000000000E+001
         AVEBETA  9.0000000000000000E+001
         AVEGAMMA  9.0000000000000000E+001
         AVE_ECONS -1.2547682352732197E+002
         AVE_PRESS  3.7590419582245124E+002
         AVE_PXX  3.4649431698466799E+002
       &END RESTART_AVERAGES
     &END AVERAGES
   &END MD
   &PRINT
     &TRAJECTORY SILENT
       FILENAME =brines-1.xyz
       &EACH
         MD 1
       &END EACH
     &END TRAJECTORY
     &CELL SILENT
       FILENAME =brines-1.cell_xyz
       &EACH
         MD 1
       &END EACH
     &END CELL
     &VELOCITIES SILENT
       FILENAME =brines-1.vel
       &EACH
         MD 1
       &END EACH
     &END VELOCITIES
     &FORCES SILENT
       FILENAME =brines-1.force
       &EACH
         MD 1
       &END EACH
     &END FORCES
     &STRESS SILENT
       FILENAME =brines-1.stress
       &EACH
         MD 1
       &END EACH
     &END STRESS
     &RESTART SILENT
       FILENAME =brines-1.restart
       &EACH
         MD 1
       &END EACH
     &END RESTART
     &RESTART_HISTORY SILENT
       &EACH
         MD 50
       &END EACH
     &END RESTART_HISTORY
   &END PRINT
 &END MOTION
 &FORCE_EVAL
   METHOD QS
   STRESS_TENSOR ANALYTICAL
   &DFT
     BASIS_SET_FILE_NAME /ccc/work/cont003/gen2309/sicilana/DATA_CP2K/GTH_BASIS_SETS
     POTENTIAL_FILE_NAME /ccc/work/cont003/gen2309/sicilana/DATA_CP2K/GTH_POTENTIALS
     &SCF
       MAX_SCF 50
       EPS_SCF  9.9999999999999995E-008
       &OT T
         MINIMIZER DIIS
         PRECONDITIONER FULL_SINGLE_INVERSE
       &END OT
       &OUTER_SCF T
         EPS_SCF  9.9999999999999995E-008
         MAX_SCF 50
       &END OUTER_SCF
     &END SCF
     &QS
       EPS_DEFAULT  1.0000000000000000E-014
       EPSFIT  1.0000000000000000E-004
       EPSISO  9.9999999999999998E-013
       EPSRHO0  9.9999999999999995E-007
       QUADRATURE GC_LOG
       EXTRAPOLATION ASPC
       METHOD GAPW
     &END QS
     &MGRID
       NGRIDS 4
       CUTOFF  5.0000000000000000E+002
       REL_CUTOFF  6.0000000000000000E+001
     &END MGRID
     &XC
       DENSITY_CUTOFF  1.0000000000000000E-010
       GRADIENT_CUTOFF  1.0000000000000000E-010
       TAU_CUTOFF  1.0000000000000000E-010
       &XC_FUNCTIONAL NO_SHORTCUT
         &PBE T
           PARAMETRIZATION REVPBE
         &END PBE
       &END XC_FUNCTIONAL
       &VDW_POTENTIAL
         POTENTIAL_TYPE PAIR_POTENTIAL
         &PAIR_POTENTIAL
           TYPE DFTD3
           PARAMETER_FILE_NAME /ccc/work/cont003/gen2309/sicilana/DATA_CP2K/dftd3.dat
           REFERENCE_FUNCTIONAL "PBE"
           CALCULATE_C9_TERM T
           REFERENCE_C9_TERM T
           VERBOSE_OUTPUT T
           D3_EXCLUDE_KIND 3
         &END PAIR_POTENTIAL
       &END VDW_POTENTIAL
     &END XC
     &REAL_TIME_PROPAGATION
       INITIAL_WFN RT_RESTART
     &END REAL_TIME_PROPAGATION
     &PRINT
       &MO_CUBES SILENT
         WRITE_CUBE F
         NLUMO 10
         NHOMO 2
         &EACH
           MD 200
         &END EACH
       &END MO_CUBES
     &END PRINT
   &END DFT
   &SUBSYS
     &CELL
       A  1.9144382833894600E+001  0.0000000000000000E+000  0.0000000000000000E+000
       B  0.0000000000000000E+000  1.9144382833894600E+001  0.0000000000000000E+000
       C  0.0000000000000000E+000  0.0000000000000000E+000  1.9144382833894600E+001
       MULTIPLE_UNIT_CELL 1 1 1
     &END CELL
     &COORD
       H  9.3545866092051959E+000  2.3294504848753395E+001  5.1426003041382917E-001
       H  8.9374553534821910E+000  2.2266061559531817E+001  1.3695638544394932E+000
       O  9.5030424453892888E+000  2.3096875315634673E+001  1.4747578575626688E+000
       H  8.1049096389429600E+000 -6.8784214369951950E+000  2.3763740531926443E+000
       H  9.2537207909950379E+000 -6.9031928742428335E+000  1.3840748463521608E+000
       O  8.7727072663055932E+000 -7.4631764350521212E+000  2.0603661342262924E+000
       H -1.1142158214870424E+001  4.7730677837921320E+001  4.8160142896766423E+001
       H -1.0370053454500493E+001  4.8994785259719386E+001  4.7767371835031845E+001
       O -1.0600242266152032E+001  4.8050138609295210E+001  4.7432917964642698E+001
       H  8.2205466489059127E+000  2.2744857089303558E+001  2.6794986511458564E+001
       H  8.5909161007169832E+000  2.4254339564423013E+001  2.6417534847328668E+001
       O  8.9943665050433790E+000  2.3339940572527940E+001  2.6538761327035381E+001
       H -7.8694627413190155E+000  5.3339224772234877E+000  7.6186901892932166E+000
       H -6.7202975464440788E+000  5.9075540831379367E+000  8.3720443713652060E+000
       O -7.6559380643282244E+000  6.1308682922870128E+000  8.2446857191565375E+000
       H  3.4342867355211403E+001  2.6875518518786880E+001 -7.0869302804080281E+000
       H  3.2859743355349011E+001  2.7231831974480578E+001 -7.1456573555159286E+000
       O  3.3687987101753052E+001  2.7561240407064641E+001 -6.7650341726476722E+000
       H -4.6364460474974143E+000  4.9035519118660620E+000  8.1397553053928373E+000
       H -4.6079938607732442E+000  4.2928066181506539E+000  9.4913271518720901E+000
       O -5.2326311243978081E+000  4.4535489319237165E+000  8.7976360131888232E+000
       H  2.5593133241330083E+001  2.4360192765453674E+000  3.7748869046459899E-001
       H  2.5430661625772995E+001  3.7143660310885438E+000  8.4978607936328365E-001
       O  2.6183148366168560E+001  3.1455766095837281E+000  5.7855596407157617E-001
       H  2.2034552375065868E+001  1.3476642077100857E+001  1.4781525210788759E+001
       H  2.1807139795181822E+001  1.3771039460998418E+001  1.3403704026155697E+001
       O  2.2450948441116612E+001  1.4012561357328529E+001  1.4165835054969076E+001
       H  2.3520165103481506E+001 -3.0932266001440611E-001  2.1751375352916678E+001
       H  2.4384788971249996E+001 -1.4955635128233409E+000  2.1172456798508463E+001
       O  2.3709310937882115E+001 -7.2113708105921093E-001  2.0951909169285642E+001
       H  8.6850039643064072E+000  4.4757310471256800E-001 -7.6756055686907816E+000
       H  7.7187491178638776E+000 -2.7413932272170549E-001 -6.9498829817964234E+000
       O  8.2158380390254848E+000 -3.3136434412206389E-001 -7.7825671899780691E+000
       H  1.2272259813981933E+001  2.5275022193466739E+000  2.1238644129439891E+001
       H  1.1296936645504754E+001  3.6031528644718129E+000  2.1311814070744234E+001
       O  1.2214039380029591E+001  3.3688222898188447E+000  2.1629111026477904E+001
       H  1.6311673775165236E+001  1.6142357841581262E+001  4.3641185711224963E+000
       H  1.7290991243686030E+001  1.5948240820176263E+001  5.4863044805238292E+000
       O  1.6463147221461693E+001  1.5575242301475868E+001  5.1891181478044919E+000
       H  6.2318875204952668E+000 -1.0735966383227712E+001 -1.4466964478327365E-001
       H  5.9913002640088324E+000 -1.1123498720557533E+001 -1.6694335265761877E+000
       O  5.9595291033276920E+000 -1.0418288970314856E+001 -1.0624799251500696E+000
       H  3.1332428192129893E+001  3.4701810080122740E+001 -7.5014423580433143E-002
       H  3.1499715094162681E+001  3.3456113858264267E+001 -9.9901917919845096E-001
       O  3.0876116101371899E+001  3.3912590607610909E+001 -3.7161479916617235E-001
       H  1.3397498545815999E+001  1.0641289804545768E+000 -1.0410902406752767E+001
       H  1.3176698390096401E+001  2.6373082526045644E+000 -1.0251974140762155E+001
       O  1.3150358648741435E+001  1.7694183051155910E+000 -9.8086788206144160E+000
       H  2.0174332472583178E+001  1.2512328842071414E+000  6.4865637969231296E+000
       H  2.1611183688864930E+001  8.9400084114788181E-001  6.4910761514693931E+000
       O  2.0960835214118568E+001  1.3041068162262230E+000  5.9126223310692643E+000
       H  8.9753854066160930E+000 -2.3197298543151961E+000  1.7348628196375106E+001
       H  8.4344598010022658E+000 -2.3438464291934018E+000  1.8794853693854463E+001
       O  8.2426287531940652E+000 -2.6405405841347291E+000  1.7890744359836312E+001
       H  4.6241214003060520E+000  1.7058608349181597E+001  9.0822179089660562E+000
       H  5.6085334987170690E+000  1.7283419700074219E+001  7.9900936578694521E+000
       O  4.6652467091899137E+000  1.7456095431514008E+001  8.2344451637522056E+000
       H  2.0250115910737055E+001  2.6555889650855701E+001  4.1540779891431239E+000
       H  2.1470563718063644E+001  2.5536965025842278E+001  4.3424293433607577E+000
       O  2.1188900694161113E+001  2.6364747757484285E+001  3.8666053501091060E+000
       H  1.6528932584406185E+001  8.9129414766168829E+000  2.1301703894813031E+001
       H  1.6469569114293545E+001  1.0308145002096428E+001  2.0541136153753278E+001
       O  1.6802110765983127E+001  9.9116522834801088E+000  2.1387081924644427E+001
       H  9.9203289192401698E+000 -1.2627168548408187E+001  1.7172177639393457E+001
       H  8.5087665057833402E+000 -1.2716748173420354E+001  1.7625147153319123E+001
       O  9.2956515383631135E+000 -1.3332525802674036E+001  1.7593421098934659E+001
       H  2.9331258986935822E+001  1.2044712410359407E+001  2.4484075827950225E+001
       H  3.0032111485718314E+001  1.3121163090445522E+001  2.3526585809878792E+001
       O  2.9278924910689330E+001  1.3040775735455803E+001  2.4235800265712040E+001
       H -1.5448672500182759E+001  8.6940365781351741E+000  1.4158706704020892E+001
       H -1.5830638311982369E+001  7.6972461443289388E+000  1.5314358718859896E+001
       O -1.6103491291909897E+001  7.9937509130661679E+000  1.4391990148255786E+001
       H  1.3212578972203786E+000  4.9007566660574415E+000  6.3749037839168503E+000
       H  1.6368515965445523E+000  6.4032134278171684E+000  6.6311995243886654E+000
       O  1.9958200966952861E+000  5.5137702956718755E+000  6.7069611129880542E+000
       H -8.8009417845980344E+000 -1.6301296454292050E+001  1.5921775006362097E+001
       H -9.4319901040569096E+000 -1.5003817235108787E+001  1.6615927590934813E+001
       O -9.1415790853522498E+000 -1.5922984971644274E+001  1.6705571096878092E+001
       H  2.6368509267554142E+001  1.0121111844200351E+001 -1.2770097014620383E+000
       H  2.6650373255483416E+001  1.1652895105207385E+001 -1.4823697292510585E+000
       O  2.7147608961051123E+001  1.0766695041864583E+001 -1.3308127972022099E+000
       H  1.3118060622317707E+001 -3.2192118402059084E+000  2.6534035950655873E+001
       H  1.3605138083159527E+001 -3.6167365760180865E+000  2.5152875102303430E+001
       O  1.2852241586873959E+001 -3.5258951958245559E+000  2.5695922437477090E+001
       H -6.9411270067100901E+000  9.6638465587400262E+000 -1.5841964171010741E+000
       H -7.8166503317356089E+000  1.0812599868151631E+001 -1.4684441299994608E+000
       O -6.8770938425219290E+000  1.0570598319348937E+001 -1.3523668754369285E+000
       H  5.1381326302206434E+000  5.8909119278944635E+000  1.9399477263501157E+000
       H  3.8715288709511215E+000  6.1283861618610995E+000  9.7042772989103021E-001
       O  4.7115146966881616E+000  5.7310998774841035E+000  1.0761145323282957E+000
       H  6.2362125105913058E-001 -1.8003025620650766E+000  3.8942402663121656E+000
       H  1.2702011542065985E+000 -5.9057571523379992E-001  3.2132084120157733E+000
       O  1.2747852397730590E+000 -1.6732456325713230E+000  3.2005097565308165E+000
       H -3.0303337698263966E+000  2.1528202339153619E+001 -4.2740529821106445E+000
       H -3.1695418121988417E+000  2.3016321586827075E+001 -4.1742989484048039E+000
       O -3.5306579441656791E+000  2.2175347262397871E+001 -3.7682958052668978E+000
       H  2.2204081781499696E+001  2.8738860977471280E+001  1.1132267134785005E+001
       H  2.2513204627090008E+001  2.7311521646410579E+001  1.1640676040913565E+001
       O  2.1931925050626838E+001  2.7812053826436593E+001  1.0928925643125341E+001
       H  2.1949089564964956E+000 -2.0048629544833929E+001 -7.1672761577165289E+000
       H  1.3162304711705044E+000 -1.8893701871463268E+001 -7.2482028782933927E+000
       O  2.0368643943788172E+000 -1.9160923926000503E+001 -6.6957065830740170E+000
       H  8.9226187981396432E+000  4.9883017456831684E+000  9.7536090315702904E+000
       H  9.8508401709073699E+000  3.9735362023475407E+000  9.7734015648282160E+000
       O  9.2439961366170120E+000  4.3966327250960635E+000  1.0395776162804241E+001
       H  1.0666112844628969E+001  1.9348992316123923E+001 -1.9690542072505327E+001
       H  1.1718271485559526E+001  1.8723293247812833E+001 -1.8819909371739627E+001
       O  1.1131554278333560E+001  1.9518260402879747E+001 -1.8820351289893743E+001
       H  1.5377354161471638E+001 -7.7769829918712299E+000 -1.6289188912896492E+001
       H  1.5173976679966730E+001 -7.2111289135405707E+000 -1.4943732255259878E+001
       O  1.5028795192449914E+001 -6.9062111056279631E+000 -1.5890425849127883E+001
       H  1.3674510530490132E+001 -2.6156798519440483E+000  2.9623125684299456E+001
       H  1.4634298880512807E+001 -3.4303579757915803E+000  2.8797030060678463E+001
       O  1.3808763020697198E+001 -2.9379170798464762E+000  2.8732848652368340E+001
       H  2.1702064012888389E+001  4.8953375177660545E+000  1.5283591023158220E+001
       H  2.3003861422997147E+001  4.1717575837871728E+000  1.5603125604360770E+001
       O  2.2141961030739100E+001  4.3250752431536990E+000  1.6038087368925648E+001
       H  1.4374479921019290E+001  2.1788228255321059E+001  1.1391581739685112E+001
       H  1.4624318226522595E+001  2.3151789843465963E+001  1.2140105486388091E+001
       O  1.5067018877814009E+001  2.2456756776215837E+001  1.1540359970731945E+001
       H  2.8343296651707890E+000  4.1964856797050025E+000  5.3125564657792115E+000
       H  2.8863705143766172E+000  4.1266157595064215E+000  3.6548698190450959E+000
       O  3.1690328834686796E+000  4.5871646490122968E+000  4.4373632688246571E+000
       H  1.7630079677997827E+001  2.2994042720484053E+001 -7.8725122922643704E+000
       H  1.7756135609922868E+001  2.1745316595564812E+001 -6.9217034230148755E+000
       O  1.8062169381721283E+001  2.2122883724880559E+001 -7.8181628161982379E+000
       H  3.9381887901599462E+000  3.5730212565451197E+001  1.4136195123692465E+001
       H  4.4557833797404536E+000  3.6124735893776979E+001  1.5600550187145624E+001
       O  3.7978657970398766E+000  3.6329795226724407E+001  1.4989219245728314E+001
       H  1.2311262202826500E+001  1.0286068123992238E+000  1.2285639252830201E+001
       H  1.1405209562590137E+001  1.7099719633796557E+000  1.1155149831051496E+001
       O  1.1452530435299369E+001  1.3856919159132242E+000  1.2032367976119774E+001
       H  1.3615046485143694E+001  1.7771502216890909E+001 -1.8108712560517255E+001
       H  1.2432901688609940E+001  1.7199542582935294E+001 -1.7243952999534045E+001
       O  1.2739854889130775E+001  1.7278725265494508E+001 -1.8153253300632752E+001
       H -9.2557019915658927E+000  1.4500650023824292E+001  6.0192885612774134E+000
       H -8.4952951356244899E+000  1.5833976125854587E+001  6.2615170421238950E+000
       O -9.3342709167192535E+000  1.5361454375109588E+001  6.5092558307437267E+000
       H  1.0644204471235028E+001  3.5507991275796059E+001  1.4888630920703276E+001
       H  9.5450869993553127E+000  3.6537553351726757E+001  1.5290342960223972E+001
       O  1.0093611894293993E+001  3.5809103936323986E+001  1.5611683381152348E+001
       H  5.8050969420147780E+000  6.5528975546806212E+000  1.4666146952367265E+001
       H  5.5024457132583739E+000  5.9079422061321241E+000  1.5972711444863968E+001
       O  5.7637491233508964E+000  6.7166499323278686E+000  1.5641677416499919E+001
       H -1.1001121700869367E+000  1.9311709400791020E+001 -5.5570174990375232E-001
       H -1.5601295088615907E+000  2.0557521251836139E+001 -5.7818998870864524E-001
       O -1.3493383046917340E+000  1.9939517200688030E+001  1.5156699409087993E-001
       H -4.3422115273939630E+000  1.8178553169519486E+001  2.3640171635751599E+001
       H -5.6010363443808711E+000  1.7852223286077145E+001  2.4341136538030330E+001
       O -5.2329207052509030E+000  1.7788174142809506E+001  2.3523127414917905E+001
       H  1.8380321302029426E+001 -5.4510830934419874E-001  5.8661363860697859E+000
       H  1.9369931193323819E+001 -1.4362379818261866E+000  6.7479293674615315E+000
       O  1.8668713228391901E+001 -1.5033237610205659E+000  6.0819054357212847E+000
       H -3.2892395955985442E+001  7.0774431966609583E+000  2.3096855702463188E+001
       H -3.3091419833251962E+001  5.6701214648189522E+000  2.3542824148615694E+001
       O -3.2661169094134245E+001  6.1813140718722712E+000  2.2860538266647843E+001
       H  1.0705118357388685E+001  8.5288146863819811E+000  1.3543045065901683E+001
       H  9.9439669182089343E+000  9.7484850329544717E+000  1.3541102598309372E+001
       O  1.0035893255772066E+001  8.9239370214712643E+000  1.2995735356322580E+001
       H  1.7533002818328480E+001 -1.7400700703062306E+001  2.5674224746995485E+001
       H  1.7660568774171931E+001 -1.8370937533592507E+001  2.6807096494231168E+001
       O  1.8271709056948719E+001 -1.8017381258886356E+001  2.6027869277074309E+001
       H -9.2071220839719448E-001  1.6091205738033821E+001 -5.2904631197834382E+000
       H  2.8422518028429739E-001  1.7026786063505345E+001 -5.3360980472923085E+000
       O -2.0298775149297993E-001  1.6392938050661645E+001 -5.8989796163322250E+000
       H  1.9643892580460594E+001  1.1425208402966751E+001  1.6226791543512196E+001
       H  1.8416677094284239E+001  1.0596665331870948E+001  1.6757234743841284E+001
       O  1.8793402155260246E+001  1.1155795977004631E+001  1.6001446277526352E+001
       H  3.0802382848052257E+000  9.7606395780021007E+000  2.7035127814051283E+001
       H  3.9365444719895812E+000  9.8106905624111516E+000  2.5742279612681376E+001
       O  3.0526402419399519E+000  9.3841480094953571E+000  2.6168822346945159E+001
       H  2.3167450311350128E+000 -6.0721518558981682E+000 -1.6635545134333201E+000
       H  1.5532448980949736E+000 -7.5074602044490124E+000 -1.1762374749823914E+000
       O  2.0355905532150094E+000 -6.9828372119180742E+000 -1.8425005728660619E+000
       H  2.9341352966424949E+000  1.0042264338084003E+001  1.6979442608386783E+001
       H  2.0407805419432887E+000  9.0811611087896473E+000  1.6127654989463487E+001
       O  2.6492908499995105E+000  9.0621051364372587E+000  1.6865052788318714E+001
       H  7.9367956280617564E+000  2.4093477948851813E+001  3.2291952636239529E+001
       H  7.6528528370059208E+000  2.2881984836734649E+001  3.3230666402667872E+001
       O  7.7815017883402504E+000  2.3142406915605520E+001  3.2298830963593559E+001
       H  8.3821659466612708E+000  3.3664237478373622E+001 -2.0970473345532690E+000
       H  9.6920253394981852E+000  3.2927938529921256E+001 -1.7415148487582870E+000
       O  8.7286940819429315E+000  3.2797740647571494E+001 -1.7967833840604823E+000
       H -1.1242534143810670E-001  1.0333402836400918E+001  1.1974638366000447E+001
       H -5.6241416605089323E-001  1.1712917863028371E+001  1.2509090657165704E+001
       O  2.4346743473671179E-001  1.1224663358836674E+001  1.2372034763914744E+001
       H  1.5539764921188469E+001  1.2376290529201656E+001 -1.8413402388517966E+001
       H  1.6125506848034899E+001  1.2232794996316493E+001 -1.9847661998061351E+001
       O  1.5525579438353525E+001  1.1837260908890936E+001 -1.9169804973784188E+001
       H  1.2121915511513134E+001 -1.9386072193633053E+000  1.7253375299871596E+001
       H  1.1446465096217564E+001 -1.2038519856555598E+000  1.6267821132208500E+001
       O  1.2312201987702224E+001 -1.1762130909866957E+000  1.6722702981177971E+001
       H  1.4544785687054551E+001  5.7329567418217060E+000  2.0814159867144920E+001
       H  1.4125773250389898E+001  7.2413874720537503E+000  2.0900322099066333E+001
       O  1.4904420539946594E+001  6.6202460319815213E+000  2.0639906278403917E+001
       H  3.0713948263753480E+001 -1.5362729874761769E+000  2.3073657576086681E+001
       H  2.9947837698262475E+001 -5.6186879523571986E-001  2.2506396326088925E+001
       O  2.9814656608714458E+001 -1.2860227879547763E+000  2.3175480560170215E+001
       H  2.0541169830398033E+001  1.5108023210403136E+001  1.7144302865283972E+001
       H  2.1591791276825582E+001  1.5655186110271803E+001  1.6108264319528782E+001
       O  2.1516370707099814E+001  1.5314898592637492E+001  1.7027665555202731E+001
       H  1.0065830049669364E+001  4.5422636109476739E+000 -5.9296436555285155E+000
       H  1.0039651593849161E+001  6.0224829468184495E+000 -6.0118165671755603E+000
       O  1.0582760273435234E+001  5.2760014405637916E+000 -5.6838957857810959E+000
       H -2.8955908942207063E+000  1.3137925137601579E+001 -5.4437667113350567E+000
       H -3.3025468523173198E+000  1.1680603909793842E+001 -5.0933231343290108E+000
       O -2.8057908027448124E+000  1.2230677095501607E+001 -5.8494273210970613E+000
       H  9.1016304244256521E+000  7.9731667282713072E+000  1.2128279048700302E+001
       H  8.9629494467036590E+000  7.0608494410334295E+000  1.0834613868953509E+001
       O  8.5615852908925287E+000  7.2509955467650062E+000  1.1708267850391129E+001
       H -1.5154174704433302E+001 -3.8752079691633066E+000  4.4091825629267261E+000
       H -1.6110384170662883E+001 -3.2782436423258012E+000  3.4253683043406427E+000
       O -1.5867068260750434E+001 -4.1903479771567627E+000  3.8327179025393998E+000
       H  1.0594949035130914E+000  8.4480773450099598E+000 -7.6691213116915726E+000
       H  7.8168633401898391E-001  8.7367801126523013E+000 -6.2910544203396457E+000
       O  2.5660682352800501E-001  8.4594497855977622E+000 -7.1635451822501075E+000
       H  1.2939276548417784E+001  9.6107306974398146E+000  7.2956060400337206E+000
       H  1.3843075397118886E+001  8.9030492620769923E+000  8.3356840610119072E+000
       O  1.3857065240680548E+001  9.4612859590264122E+000  7.5541907878269257E+000
       H  3.4467892442308630E+000  1.1183766250696642E+001  2.4876541082013830E+000
       H  2.5391023971625541E+000  1.2292356529243914E+001  1.9063140426368197E+000
       O  3.3189609725877145E+000  1.1613713477744378E+001  1.6511253750978516E+000
       H  1.3397327896687399E+001  1.5155908810089635E+001 -6.2477441598919103E+000
       H  1.4513962757358376E+001  1.4048608188998454E+001 -6.7444617884101223E+000
       O  1.4374891172166096E+001  1.4902950944484267E+001 -6.3103765934127996E+000
       H  1.3765060678653576E+001  1.8751497818344326E+001  1.3780523629394517E+001
       H  1.3374522144361748E+001  2.0118149387417670E+001  1.4272184761228692E+001
       O  1.3847893552512055E+001  1.9630633120297087E+001  1.3562005435838437E+001
       H  6.2860622574654483E+000 -4.8122253101571930E+000 -1.2417719274931336E+001
       H  5.0755518926019985E+000 -5.6351372736604963E+000 -1.2106526171688625E+001
       O  5.3130714474455107E+000 -4.8547907843409188E+000 -1.2614400648793323E+001
       H  7.7802220834314939E+000  1.0009828872512138E+001  4.5329156683611531E+000
       H  8.1560901663909871E+000  1.1530262515793405E+001  4.5918441383034496E+000
       O  7.6557462735885276E+000  1.0841067701838659E+001  5.0528114784021279E+000
       H  1.1696933733571463E+001  8.4234827506460821E+000  9.6140206081813417E+000
       H  1.2594145095510916E+001  9.1595376590612059E+000  1.0773653343371546E+001
       O  1.2590346751070232E+001  8.4820859704951559E+000  1.0110313116617867E+001
       H  7.3786316317814526E-001  1.6068656847617768E-001 -9.6809302000839565E+000
       H  2.9869400010225872E-001  1.4852285583658149E+000 -9.4045392767879257E+000
       O  1.1363495283269888E-002  6.4176485602502908E-001 -9.0994651243324096E+000
       H  2.1925696011004319E+000  1.3706474849270535E+001  4.9933893392441009E+000
       H  1.5555805523915374E+000  1.3141454798931932E+001  6.3174557761539276E+000
       O  1.4071266693147289E+000  1.3772506331077260E+001  5.5484962321929938E+000
       H -6.4578918611343274E+000 -7.2274936262997924E+000  1.6886133612812547E+001
       H -6.7116898689072189E+000 -6.5201340064730662E+000  1.5546767313548655E+001
       O -6.6151998216352697E+000 -6.3587541217088637E+000  1.6513697261228788E+001
       H  1.9485747364762638E+001  2.2462119367366733E+000  1.3831249158192449E+001
       H  1.8700388759604365E+001  9.1813437461747582E-001  1.4358620101897738E+001
       O  1.8637992302416531E+001  1.8676139359799120E+000  1.4064831619509869E+001
       H  1.6663395602887874E+001 -4.2323699265982659E+000  2.8299587583266430E+001
       H  1.7257629247419899E+001 -5.0922572444419272E+000  2.9376895700272811E+001
       O  1.6754427466762021E+001 -4.2658978039488717E+000  2.9251465968185983E+001
       H  1.9110408616612652E+001  1.0488016643256539E+000  2.0891891857015729E+001
       H  2.0050222875713811E+001  1.7522326350970530E+000  2.1863228883490905E+001
       O  1.9966728798443018E+001  9.6902768394179506E-001  2.1391789324266945E+001
       H  9.1049036306632072E+000  1.5974135721099660E+000 -4.9832239926945325E+000
       H  9.5501634121303542E+000  7.9643069930186050E-001 -6.1094216867862707E+000
       O  8.9680991179781735E+000  7.5306150891564561E-001 -5.3212752869161557E+000
       H  8.9876916228017762E+000 -6.3939626489470598E+000 -4.0637470886360898E+000
       H  7.8339416537329241E+000 -6.9241431126263526E+000 -5.0415954034402155E+000
       O  8.8553934278594877E+000 -6.8919831370403104E+000 -4.8995190841333445E+000
       H  3.4913808069308907E+001  1.6024198046690469E+001  1.5266054294409628E+001
       H  3.6321183949708413E+001  1.6672206827907051E+001  1.5342023575600095E+001
       O  3.5851784550903247E+001  1.5854952526001977E+001  1.5016858696337556E+001
       H  1.9628363278705567E+001  8.9878617362144393E+000  7.5095975598562479E+000
       H  1.9591644299037458E+001  1.0471633730222470E+001  7.0990802931731203E+000
       O  1.9025670175959110E+001  9.7521910290592864E+000  7.5626141541839820E+000
       H  8.9401708192807305E+000 -6.8140308518416832E+000  7.8415052357776895E+000
       H  8.9377318413235951E+000 -5.1806919092276225E+000  8.2493137865082762E+000
       O  8.8493893894194127E+000 -6.1180083281950566E+000  8.5426092067611599E+000
       H -2.6901015831783290E+000  4.5917891518394889E+000  5.7944736983294813E+000
       H -2.2662591443205651E+000  4.6823661093892790E+000  4.3473112580371902E+000
       O -3.0676223770991955E+000  4.5520452978190464E+000  4.9274879605233224E+000
       H  1.2392119758289267E+001 -1.4064390953777801E+001 -3.5271405629754278E+000
       H  1.2736204040075968E+001 -1.2908317901434691E+001 -4.6619576486931420E+000
       O  1.3013925162516770E+001 -1.3412154957064978E+001 -3.8893718863221287E+000
       H  2.1740118089324881E+001 -1.1123615446923527E+000  7.9836300443468022E-001
       H  2.1474659166899379E+001 -2.3498237855847823E+000  5.9687498340693222E-002