 # Version information for this restart file 
 # current date 2025-03-29 16:45:25.879
 # current working dir /ccc/scratch/cont003/gen2309/sicilana/NPT/128_H2O_4_NaCl_10_wt_673K_1000bar/BATCH_10_MD_T_673_P_1000_steps_1000_dt_0.5_NH2O_128_NaCl_4_abc_17.19_17.19_17.19_wt_9.20
 # Program compiled at                                       2024-10-31 15:04:21
 # Program compiled on                                                 topaze131
 # Program compiled for                                                   x86_64
 # Source code revision number                                                  
 &GLOBAL
   PRINT_LEVEL LOW
   PROJECT_NAME "brines"
   RUN_TYPE MD
   FLUSH_SHOULD_FLUSH T
 &END GLOBAL
 &MOTION
   &MD
     ENSEMBLE NPT_I
     STEPS 1000
     TIMESTEP  4.9999999999999994E-001
     STEP_START_VAL 25300
     TIME_START_VAL  1.2650000000007332E+004
     ECONS_START_VAL -2.4590398713531335E+003
     TEMPERATURE  6.7300000000000011E+002
     &BAROSTAT
       PRESSURE  1.0000000000000000E+003
       TIMECON  9.9999999999999986E+001
       &VELOCITY
          -3.5663984158188887E-007
       &END VELOCITY
       &MASS
           4.2836593343398705E+007
       &END MASS
       &THERMOSTAT
         TYPE CSVR
         &CSVR
           TIMECON  4.8377686530095694E+001
           &THERMOSTAT_ENERGY
              -3.7448624806556392E-005
           &END THERMOSTAT_ENERGY
           &RNG_INIT
 Wiener process for Thermostat # 1        1 F T F   2.0041129365520614E+00        2711367970.0        1496862059.0        3637680731.0         540017540.0        3407650531.0        3681869327.0             12345.0             12345.0             12345.0             12345.0             12345.0             12345.0             12345.0             12345.0             12345.0             12345.0             12345.0             12345.0
           &END RNG_INIT
         &END CSVR
       &END THERMOSTAT
     &END BAROSTAT
     &THERMOSTAT
       TYPE CSVR
       &CSVR
         TIMECON  4.9999999999999994E+002
         &THERMOSTAT_ENERGY
            -7.8465585120195280E-001
         &END THERMOSTAT_ENERGY
         &RNG_INIT
 Wiener process for Thermostat # 1        1 F T F  -1.4578194488667413E+00        2556291850.0        4217251099.0          62585945.0        2421985642.0        3285887092.0         687899797.0             12345.0             12345.0             12345.0             12345.0             12345.0             12345.0             12345.0             12345.0             12345.0             12345.0             12345.0             12345.0
         &END RNG_INIT
       &END CSVR
     &END THERMOSTAT
     &AVERAGES T
       &RESTART_AVERAGES
         ITIMES_START 1
         AVECPU  2.2842496577356648E+001
         AVEHUGONIOT  0.0000000000000000E+000
         AVETEMP_BARO  3.0039540593688110E+002
         AVEPOT -2.4597061543964246E+003
         AVEKIN  1.2256150886808703E+000
         AVETEMP  6.5987753297994288E+002
         AVEKIN_QM  0.0000000000000000E+000
         AVETEMP_QM  0.0000000000000000E+000
         AVEVOL  3.8260872939736255E+004
         AVECELL_A  3.3624429729839157E+001
         AVECELL_B  3.3624429729839157E+001
         AVECELL_C  3.3624429729839157E+001
         AVEALPHA  9.0000000000000000E+001
         AVEBETA  9.0000000000000000E+001
         AVEGAMMA  9.0000000000000000E+001
         AVE_ECONS -1.2173420549432808E+002
         AVE_PRESS  3.6621124735349531E+002
         AVE_PXX  3.3066459649730086E+002
       &END RESTART_AVERAGES
     &END AVERAGES
   &END MD
   &PRINT
     &TRAJECTORY SILENT
       FILENAME =brines-1.xyz
       &EACH
         MD 1
       &END EACH
     &END TRAJECTORY
     &CELL SILENT
       FILENAME =brines-1.cell_xyz
       &EACH
         MD 1
       &END EACH
     &END CELL
     &VELOCITIES SILENT
       FILENAME =brines-1.vel
       &EACH
         MD 1
       &END EACH
     &END VELOCITIES
     &FORCES SILENT
       FILENAME =brines-1.force
       &EACH
         MD 1
       &END EACH
     &END FORCES
     &STRESS SILENT
       FILENAME =brines-1.stress
       &EACH
         MD 1
       &END EACH
     &END STRESS
     &RESTART SILENT
       FILENAME =brines-1.restart
       &EACH
         MD 1
       &END EACH
     &END RESTART
     &RESTART_HISTORY SILENT
       &EACH
         MD 50
       &END EACH
     &END RESTART_HISTORY
   &END PRINT
 &END MOTION
 &FORCE_EVAL
   METHOD QS
   STRESS_TENSOR ANALYTICAL
   &DFT
     BASIS_SET_FILE_NAME /ccc/work/cont003/gen2309/sicilana/DATA_CP2K/GTH_BASIS_SETS
     POTENTIAL_FILE_NAME /ccc/work/cont003/gen2309/sicilana/DATA_CP2K/GTH_POTENTIALS
     &SCF
       MAX_SCF 50
       EPS_SCF  9.9999999999999995E-008
       &OT T
         MINIMIZER DIIS
         PRECONDITIONER FULL_SINGLE_INVERSE
       &END OT
       &OUTER_SCF T
         EPS_SCF  9.9999999999999995E-008
         MAX_SCF 50
       &END OUTER_SCF
     &END SCF
     &QS
       EPS_DEFAULT  1.0000000000000000E-014
       EPSFIT  1.0000000000000000E-004
       EPSISO  9.9999999999999998E-013
       EPSRHO0  9.9999999999999995E-007
       QUADRATURE GC_LOG
       EXTRAPOLATION ASPC
       METHOD GAPW
     &END QS
     &MGRID
       NGRIDS 4
       CUTOFF  5.0000000000000000E+002
       REL_CUTOFF  6.0000000000000000E+001
     &END MGRID
     &XC
       DENSITY_CUTOFF  1.0000000000000000E-010
       GRADIENT_CUTOFF  1.0000000000000000E-010
       TAU_CUTOFF  1.0000000000000000E-010
       &XC_FUNCTIONAL NO_SHORTCUT
         &PBE T
           PARAMETRIZATION REVPBE
         &END PBE
       &END XC_FUNCTIONAL
       &VDW_POTENTIAL
         POTENTIAL_TYPE PAIR_POTENTIAL
         &PAIR_POTENTIAL
           TYPE DFTD3
           PARAMETER_FILE_NAME /ccc/work/cont003/gen2309/sicilana/DATA_CP2K/dftd3.dat
           REFERENCE_FUNCTIONAL "PBE"
           CALCULATE_C9_TERM T
           REFERENCE_C9_TERM T
           VERBOSE_OUTPUT T
           D3_EXCLUDE_KIND 3
         &END PAIR_POTENTIAL
       &END VDW_POTENTIAL
     &END XC
     &REAL_TIME_PROPAGATION
       INITIAL_WFN RT_RESTART
     &END REAL_TIME_PROPAGATION
     &PRINT
       &MO_CUBES SILENT
         WRITE_CUBE F
         NLUMO 10
         NHOMO 2
         &EACH
           MD 200
         &END EACH
       &END MO_CUBES
     &END PRINT
   &END DFT
   &SUBSYS
     &CELL
       A  1.8953883457795804E+001  0.0000000000000000E+000  0.0000000000000000E+000
       B  0.0000000000000000E+000  1.8953883457795804E+001  0.0000000000000000E+000
       C  0.0000000000000000E+000  0.0000000000000000E+000  1.8953883457795804E+001
       MULTIPLE_UNIT_CELL 1 1 1
     &END CELL
     &COORD
       H  9.1376946064110847E+000  2.3284328554865965E+001 -7.0112393422826713E-001
       H  8.3715924509873183E+000  2.3387742415547109E+001  4.8260686968417493E-001
       O  9.2732905809234900E+000  2.3493040042632007E+001  2.3375240298320971E-001
       H  9.2556226840463669E+000 -6.6599124833926249E+000  1.9667437265357042E+000
       H  8.8514045810757622E+000 -6.8014787994716936E+000  3.8953447526913082E-001
       O  8.7356735592456811E+000 -7.1504248675679669E+000  1.2800009118990840E+000
       H -1.0771218783822100E+001  4.7534029234118712E+001  4.7604267304197123E+001
       H -1.1485627163456178E+001  4.7918519184139775E+001  4.6378820889913527E+001
       O -1.0761826960966596E+001  4.8231967055218362E+001  4.6890312723370641E+001
       H  8.6747865068770853E+000  2.2968267765884995E+001  2.6212442453575793E+001
       H  8.7105288417512501E+000  2.4229105047374489E+001  2.5333970717957648E+001
       O  8.1319173349770857E+000  2.3656630981484117E+001  2.5824226425977084E+001
       H -8.2509896543445418E+000  6.5570638005673763E+000  5.8149878795644261E+000
       H -7.7182891934900004E+000  5.9376738352472600E+000  7.2155671395635483E+000
       O -8.4212099084867571E+000  6.4464481405249474E+000  6.7409635616694779E+000
       H  3.4262059745172330E+001  2.5421362042467194E+001 -7.7666143218734360E+000
       H  3.4438999170712883E+001  2.6217219666287040E+001 -6.4557500646392834E+000
       O  3.3715960909601264E+001  2.5866347399934625E+001 -7.0729549354099124E+000
       H -5.5183336610330826E+000  4.3654625651941767E+000  8.8943056507818312E+000
       H -6.9656801378502884E+000  4.3068212537964010E+000  8.5000993452664915E+000
       O -6.0496223349919278E+000  4.5132617308250502E+000  8.1329810193391818E+000
       H  2.4728416500781144E+001  5.5569405412248312E+000  1.3498883177279546E+000
       H  2.5344385808551220E+001  4.7014202351310033E+000  2.4760186699860962E+000
       O  2.5066741899312017E+001  4.6587018250150720E+000  1.5651108221218410E+000
       H  2.0067808993686057E+001  1.4240304650673137E+001  1.4432841194460233E+001
       H  2.0939120617410943E+001  1.2980591282233728E+001  1.4253694843243563E+001
       O  2.0954192472356354E+001  1.3923983955240015E+001  1.4083660153570767E+001
       H  2.3041128515479887E+001  6.0498038085528993E-001  2.0294012237295558E+001
       H  2.4061030886805213E+001 -5.1512064865244567E-001  2.0581169918822123E+001
       O  2.3025941124035501E+001 -3.2406631027588356E-001  2.0535783502036747E+001
       H  1.0425457408736218E+001 -2.6554754068620943E+000 -7.2849061567778559E+000
       H  9.0156567820428108E+000 -2.2477951181482143E+000 -7.5571785721739353E+000
       O  9.6869552872339302E+000 -2.8492172662989015E+000 -8.0544894640929332E+000
       H  1.1638501918725334E+001  1.9918684271999081E+000  1.9547674379658616E+001
       H  1.1616342339815251E+001  3.4455733951509697E+000  1.9416544011271071E+001
       O  1.2275432210600162E+001  2.7512408472801013E+000  1.9391991730645604E+001
       H  1.5644867266496593E+001  1.6339023162279112E+001  5.7929015592348643E+000
       H  1.6936506759578709E+001  1.6245849922293299E+001  5.1797401207075371E+000
       O  1.6082740558802854E+001  1.5700292874416474E+001  5.2602329037707838E+000
       H  4.5816805005457324E+000 -1.0149462268870812E+001  7.5526837761765842E-001
       H  4.5666031500065856E+000 -1.0579368922967005E+001 -8.4221936889058469E-001
       O  5.0459178494018779E+000 -1.0018843207143362E+001 -6.5884177474659023E-002
       H  3.1141482169677211E+001  3.3325487778879022E+001 -2.6459038554269912E-002
       H  3.1131703817506978E+001  3.3127614804856186E+001 -1.5939160854238996E+000
       O  3.0880251542513548E+001  3.2746218569193339E+001 -7.2094846471053253E-001
       H  1.3543681129934260E+001  7.1931520643598568E-001 -8.6649789512342323E+000
       H  1.3992084239913849E+001 -6.7848023825295456E-001 -8.2581846232321965E+000
       O  1.3544153137279160E+001  1.7593033020156296E-001 -7.8847124323904847E+000
       H  2.1369109649376348E+001  1.6665778069307602E+000  4.6945216958871709E+000
       H  2.2812880304667406E+001  2.1449740057288453E+000  4.5320270877875695E+000
       O  2.2178788954522073E+001  1.8876384239103428E+000  5.2118984568396982E+000
       H  8.2724131378782086E+000 -2.5948837475181423E+000  1.8091831837036754E+001
       H  7.7964758727090464E+000 -2.8445706400033330E+000  1.6584042317514896E+001
       O  7.5917420589119313E+000 -2.3935687988651639E+000  1.7469854085819520E+001
       H  3.9446653893929104E+000  1.7065017222466860E+001  8.4133046260805120E+000
       H  5.3028678652304535E+000  1.6432810712310765E+001  8.7613461418173131E+000
       O  4.7088324802174251E+000  1.6482115784534315E+001  8.0240325825338612E+000
       H  1.9927071767911006E+001  2.6482613830034111E+001  4.0254410431315106E+000
       H  1.9936400243041387E+001  2.7968329552874938E+001  3.5403248335327198E+000
       O  2.0477045887717892E+001  2.7143262371041036E+001  3.6096006986213718E+000
       H  1.5669392379272340E+001  6.8691411300812719E+000  2.1435703630244948E+001
       H  1.5609805976259382E+001  8.3808990550951243E+000  2.1026255888151379E+001
       O  1.6037562576735272E+001  7.7397500579555025E+000  2.1603600326605054E+001
       H  7.0862326251003545E+000 -1.2847265894149078E+001  1.6394054647275773E+001
       H  7.6117723484663911E+000 -1.2692408599549996E+001  1.7937791020480173E+001
       O  7.6896062762902506E+000 -1.3219093100032653E+001  1.7069832952262463E+001
       H  2.9863620602527448E+001  1.0687499729618777E+001  2.3919531113810436E+001
       H  3.0291131454162564E+001  1.1316294091861897E+001  2.2617592983420717E+001
       O  2.9694003741079420E+001  1.1530165626436606E+001  2.3320777427786918E+001
       H -1.5097589232959645E+001  7.5550806249678466E+000  1.2418010191865696E+001
       H -1.4539817039585287E+001  9.0978606654364853E+000  1.2215521420122570E+001
       O -1.4331728769015788E+001  8.1633370512468524E+000  1.2540268693122334E+001
       H  2.2584518148922390E+000  5.2210415236337919E+000  9.6262237773254036E+000
       H  2.7739518286820184E+000  4.3214784288374215E+000  8.4241848964977617E+000
       O  1.9857487404285765E+000  4.6985318925345183E+000  8.8450288902871321E+000
       H -1.0853109130441219E+001 -1.5645899670903233E+001  1.6159624750020676E+001
       H -1.0065601219618992E+001 -1.5377482509460915E+001  1.4876278696013435E+001
       O -9.9739208620087929E+000 -1.5719057503508646E+001  1.5768204383115885E+001
       H  2.4950712058342749E+001  9.9720682052799887E+000 -1.1322717669766105E+000
       H  2.6190115205017921E+001  1.0834897309459119E+001 -1.6331937094337514E+000
       O  2.5514868392001656E+001  1.0168131489323915E+001 -1.9350088214495289E+000
       H  1.2724750000046919E+001 -1.5165605863605722E+000  2.5506750038792937E+001
       H  1.2880737490510882E+001 -2.4406288025957581E+000  2.4265634385599697E+001
       O  1.2927028062049894E+001 -2.4809015434411559E+000  2.5240024623985750E+001
       H -7.7141609891905611E+000  1.0635840515332072E+001  7.2583214615901537E-001
       H -7.1810027591893713E+000  1.1768592837670125E+001  1.5737830404553022E+000
       O -7.0549803832169165E+000  1.0835066498755200E+001  1.4336827319513001E+000
       H  4.4851984436661905E+000  7.6799578777019928E+000  2.8598841734935010E+000
       H  3.0958679924334120E+000  7.5994819051932492E+000  2.4752345369359796E+000
       O  3.9278106839436946E+000  7.8287199422437030E+000  2.0516898744048380E+000
       H  5.4857086385596254E-001 -1.4052620002563276E+000  4.3912839541494222E+000
       H  1.6769882125381079E+000 -9.0238664809421398E-001  3.2011149234806209E+000
       O  9.6933309594514450E-001 -1.6022321684148904E+000  3.5124236422718207E+000
       H -3.1127168452437131E+000  2.1594342785978291E+001 -3.0049128893591730E+000
       H -4.0456801360023702E+000  2.1592364941548951E+001 -1.7318800674936090E+000
       O -4.0977276836324492E+000  2.1750261215233920E+001 -2.6599626813657578E+000
       H  2.0941799696781636E+001  2.7264350445222199E+001  8.3230253698314254E+000
       H  1.9928757782542277E+001  2.7799042201707646E+001  9.3591954656595284E+000
       O  2.0645342811657692E+001  2.7119726301193154E+001  9.1842562714006259E+000
       H  2.7664239782631945E+000 -1.7034739017974488E+001 -8.1539873246128316E+000
       H  2.6543495362141365E+000 -1.8183951637880966E+001 -7.1612402234989885E+000
       O  2.7677372036137595E+000 -1.7137255399585229E+001 -7.2006837157629864E+000
       H  1.0442147987829442E+001  5.4899126044413631E+000  9.9436453381245151E+000
       H  1.0211027176797202E+001  3.9999115737914073E+000  1.0134672680582476E+001
       O  1.0523822356375875E+001  4.6236390312132585E+000  9.4853154163551068E+000
       H  8.9939298333850690E+000  1.8983734742168711E+001 -1.8762452492238580E+001
       H  9.8590194069535446E+000  1.9881943223012339E+001 -1.9841283661369783E+001
       O  9.7222366699927001E+000  1.9583392031958216E+001 -1.8855176492153173E+001
       H  1.4408491760056917E+001 -4.5713851282876474E+000 -1.3609608507404063E+001
       H  1.5589961982788768E+001 -5.1177735465577499E+000 -1.4334529686971154E+001
       O  1.4608027746134848E+001 -5.0847401184348744E+000 -1.4429817301420258E+001
       H  1.2777808259767145E+001 -2.3732999310131659E+000  2.9137004497158554E+001
       H  1.4002404806311590E+001 -2.8436914840985659E+000  2.8331233374657209E+001
       O  1.3528270994329768E+001 -2.0733136846751439E+000  2.8507519750317286E+001
       H  2.2686268013760980E+001  4.1266022485570426E+000  1.5541682258194625E+001
       H  2.2447009102891535E+001  3.9922040191573935E+000  1.7032719012370457E+001
       O  2.2030138369969904E+001  4.3845338723835061E+000  1.6215007401736912E+001
       H  1.3863815367608382E+001  2.2159656014266993E+001  1.1722283579975214E+001
       H  1.3175298360996480E+001  2.3566958518411838E+001  1.1992599205918593E+001
       O  1.3281333965138845E+001  2.2667475902117179E+001  1.2360983365516740E+001
       H  3.5624729220456741E+000  3.9914004933004428E+000  5.5574529109347308E+000
       H  2.9186091530326470E+000  5.4172326299377938E+000  5.8956712275077674E+000
       O  3.4893287498883936E+000  4.9151907305971116E+000  5.2544287861148096E+000
       H  1.7205374726800411E+001  2.1757194257372909E+001 -7.5872809709211015E+000
       H  1.7490398009235800E+001  2.2333618051609221E+001 -6.2530469892847869E+000
       O  1.7659391296400589E+001  2.2506954297071069E+001 -7.1613760545275538E+000
       H  4.0874868206884116E+000  3.5073252653928108E+001  1.3390803343226111E+001
       H  4.4145143030425897E+000  3.6452995399312321E+001  1.3774638690897511E+001
       O  4.2613403629238071E+000  3.5636976915124983E+001  1.4179202669550547E+001
       H  1.0697930915307463E+001  2.2064516493104502E+000  1.3944645289790150E+001
       H  1.1274964450003383E+001  1.5113586819802349E+000  1.2632795623214905E+001
       O  1.0460788390997653E+001  2.0115982336016849E+000  1.3018163650487597E+001
       H  1.2430736725709215E+001  1.7000620071784855E+001 -1.9024556388374865E+001
       H  1.2970794228686829E+001  1.7122786599164119E+001 -1.7516636296789461E+001
       O  1.2227401067446158E+001  1.6791238662806158E+001 -1.8122805837922037E+001
       H -8.6064617205389045E+000  1.3431436930573794E+001  5.2625573879821594E+000
       H -7.9561721975023856E+000  1.4679095475883129E+001  6.0700418562713105E+000
       O -8.7678553313597174E+000  1.4201374066021147E+001  5.8333102959450631E+000
       H  8.0009758303836147E+000  3.3845752125664312E+001  1.4516542501387345E+001
       H  8.6469691609363970E+000  3.5251833036215011E+001  1.4410062758976972E+001
       O  7.8301298987239365E+000  3.4777287506378080E+001  1.4677097734198114E+001
       H  5.8764116155984869E+000  7.3177083764552879E+000  1.4443616996681635E+001
       H  7.1412131650464632E+000  7.0574885187884906E+000  1.3839503923517059E+001
       O  6.6759806635556744E+000  6.8846116221394658E+000  1.4696789766548235E+001
       H -3.8020470983126631E-001  1.8908248903980766E+001  8.7829780734320767E-002
       H -1.6343293774788930E+000  1.9860799203362895E+001  6.4601153760913732E-001
       O -8.6440995409421351E-001  1.9322077578171911E+001  8.5842348690694259E-001
       H -3.9743646372553036E+000  1.7464292765072820E+001  2.2960968603990544E+001
       H -4.6105088737597475E+000  1.8604275738825095E+001  2.2223520639551221E+001
       O -4.7946767174553537E+000  1.7719141550958646E+001  2.2401736726611137E+001
       H  1.7680679444682550E+001 -8.2536881122020711E-001  6.2483768467877052E+000
       H  1.8778869336472283E+001 -1.6423430150485534E+000  6.4703793778880723E+000
       O  1.8265771902229282E+001 -1.3274337732742691E+000  5.6704202413171227E+000
       H -3.1228110291791022E+001  7.3030852938468813E+000  2.2782079713624899E+001
       H -3.2398839672129284E+001  6.3516482674576968E+000  2.3432003554164790E+001
       O -3.2233280945795769E+001  7.1894392179828799E+000  2.2929127241434735E+001
       H  1.1970450883173362E+001  7.9218906903179933E+000  1.3554801203118400E+001
       H  1.0614147205599364E+001  8.4004624749061279E+000  1.3811823131500759E+001
       O  1.1056912851814580E+001  7.7408361487439699E+000  1.3218178646117201E+001
       H  1.7825069742120395E+001 -1.7141926038562136E+001  2.5629389397512490E+001
       H  1.6883688199511951E+001 -1.7198466598480969E+001  2.6749442632937068E+001
       O  1.7476880139944107E+001 -1.7817812362048809E+001  2.6276962564592502E+001
       H  2.3893405277981503E-001  1.6384818050827903E+001 -5.4608234762929513E+000
       H -5.8625840383694761E-001  1.7626636510855157E+001 -5.5009149336159338E+000
       O -3.2849579049350014E-001  1.6899915571258745E+001 -6.1214313655801034E+000
       H  1.7752700383406108E+001  1.1698190938901266E+001  1.6878471971563567E+001
       H  1.6608467959851524E+001  1.1536163117436947E+001  1.5918727467387372E+001
       O  1.7539131968041069E+001  1.1232855568709720E+001  1.5995258606186862E+001
       H  4.0316042954560665E+000  1.0634150348010460E+001  2.5847684494711938E+001
       H  2.6468499326646273E+000  1.0752786855643373E+001  2.6408534263623721E+001
       O  3.1968197985381535E+000  1.0341918959672567E+001  2.5637975559676413E+001
       H  1.5759570131466736E+000 -6.9106785022671353E+000 -2.3688116781326833E+000
       H  1.9388423685180189E+000 -7.1578134662582720E+000 -8.0023577353267428E-001
       O  1.9699704160218674E+000 -7.5552174167500246E+000 -1.7196340367717042E+000
       H  2.4383098783644059E+000  8.5414414182322158E+000  1.5645312137986160E+001
       H  3.2659640678080333E+000  9.4251355738653526E+000  1.6435032810605801E+001
       O  3.2998131496061927E+000  8.5337197234650279E+000  1.6215419018068211E+001
       H  8.0676158622822278E+000  2.3859034911665887E+001  3.0447650736311509E+001
       H  9.1999769682151502E+000  2.3900467819479466E+001  3.1506964058310757E+001
       O  8.2153054570153241E+000  2.3718166641398156E+001  3.1400026750375972E+001
       H  8.2903924380542904E+000  3.2376951575636447E+001 -8.7819817886030804E-001
       H  9.9613733531961497E+000  3.2441610585279470E+001 -7.6068417429850321E-001
       O  9.1413404897413209E+000  3.2069572479485025E+001 -1.2089340824576915E+000
       H  1.4362974412360527E+000  1.0157930212101412E+001  1.2904532410810310E+001
       H  7.0673942825660163E-001  1.1425925012395744E+001  1.2770429909502106E+001
       O  1.4987113323247176E+000  1.1046466673971645E+001  1.3262419664311579E+001
       H  1.5128340263529603E+001  1.1834727271982063E+001 -1.7409842554378859E+001
       H  1.3944487988249632E+001  1.1057205255504934E+001 -1.8224256678976186E+001
       O  1.4918966051530987E+001  1.1058966587036224E+001 -1.8005072183948641E+001
       H  1.1826256639264162E+001 -1.4978160370744766E+000  1.6854862332671679E+001
       H  1.0769518721020050E+001 -2.3569852506465985E+000  1.6671663789286722E+001
       O  1.1627548648839573E+001 -2.4284509037995332E+000  1.7000106093746783E+001
       H  1.4272673068749725E+001  4.9058383411009583E+000  2.1265822769800231E+001
       H  1.2912467298032485E+001  5.3109256861539924E+000  2.0512950285902328E+001
       O  1.3711714113665177E+001  5.6644498805907704E+000  2.1035769623037105E+001
       H  2.9870807613741775E+001 -1.3291880171593478E+000  2.2381425801512268E+001
       H  2.9161338258678722E+001 -1.2709126700838783E-001  2.3291598888177173E+001
       O  2.9277134610858297E+001 -1.0325036649756469E+000  2.3100983294852973E+001
       H  1.8093760568661853E+001  1.6220208155288685E+001  1.6131987091480774E+001
       H  1.7810213120462247E+001  1.4874095782691025E+001  1.6790112214600544E+001
       O  1.8131084831300019E+001  1.5302927772973142E+001  1.5973658914779811E+001
       H  1.1461927735748912E+001  5.7661698834450252E+000 -5.3764570914762970E+000
       H  1.1394489418797084E+001  4.5488477631772861E+000 -6.2928320218557365E+000
       O  1.0876620108378059E+001  5.2679839260412642E+000 -5.9464301390173917E+000
       H -1.3192632677074754E+000  1.1265564398843022E+001 -5.2279844056231166E+000
       H -2.4009790157700990E+000  1.2296203845921379E+001 -5.6290275932878213E+000
       O -2.1874756277367657E+000  1.1395068971644831E+001 -5.7701585838504403E+000
       H  9.7373661583305378E+000  7.8487176231428704E+000  1.0990740197450355E+001
       H  9.0814431599013794E+000  6.8627472169768229E+000  9.9849519757982801E+000
       O  8.9062485892105219E+000  7.4264773408699645E+000  1.0783034053249256E+001
       H -1.4153004852449547E+001 -2.7270347768884378E+000  4.2680566361541228E+000
       H -1.5215538756284028E+001 -2.2867622935883696E+000  3.3118677229866731E+000
       O -1.4337625320214515E+001 -2.7619969753436089E+000  3.2518753596646599E+000
       H  1.4522213417503349E+000  8.2108848913800738E+000 -7.4577553425195866E+000
       H  2.9832166542972510E-001  7.8707475774891815E+000 -6.5827309141294146E+000
       O  1.0014151054857305E+000  8.5502496019614611E+000 -6.7267235749365453E+000
       H  1.3818110110227250E+001  9.2011065211383496E+000  7.6484914745591688E+000
       H  1.4551840343978563E+001  1.0645810009308983E+001  8.1357373936656288E+000
       O  1.4642374784728794E+001  9.6888943632838131E+000  7.6796342004939593E+000
       H  4.2609771704463695E+000  1.1058099114350588E+001  6.8077941646339080E-001
       H  4.0557554937942610E+000  1.0697240939343395E+001  2.2471204060058345E+000
       O  3.6983753561621739E+000  1.1276791975861114E+001  1.4933720368132206E+000
       H  1.2916936942976291E+001  1.3885718289874598E+001 -6.7501138184660530E+000
       H  1.3382694059092426E+001  1.4183405034151974E+001 -5.4076912152920764E+000
       O  1.3599077095571232E+001  1.4445820802248889E+001 -6.2632489791437980E+000
       H  1.3274670153289385E+001  1.9123198606277739E+001  1.3039318167868545E+001
       H  1.3387802439121090E+001  1.9383824912356221E+001  1.4587870209597543E+001
       O  1.3032927296625708E+001  1.8787146219881318E+001  1.3948233531136584E+001
       H  6.0488895757168351E+000 -5.4117224587977972E+000 -1.2608106467092609E+001
       H  6.4064665163046639E+000 -4.8638487684101301E+000 -1.1217976097273961E+001
       O  5.6856344573842144E+000 -5.3288856208967808E+000 -1.1726733448912078E+001
       H  8.9386689811097053E+000  9.0370522431146121E+000  3.0337045424685005E+000
       H  7.7766456080674695E+000  9.0677252097747445E+000  4.0923966144949953E+000
       O  8.4444500212240996E+000  8.4917431716817156E+000  3.6343748962426998E+000
       H  1.0543882170841938E+001  1.0114141802319672E+001  1.0713623347985704E+001
       H  1.1569370084792688E+001  9.0327315420128436E+000  1.0898478057980959E+001
       O  1.0960466811023053E+001  9.4341729125248239E+000  1.0203747582534717E+001
       H -2.3943467096268184E-001  5.4273387268835138E-001 -9.6308694290473991E+000
       H -5.4443329938932222E-002  1.5379571599960211E+000 -8.4280317876678783E+000
       O -4.3171098420647938E-002  6.5464701116568913E-001 -8.6664148742417471E+000
       H  2.4885506960144252E+000  1.3936691779137606E+001  4.5857140865845842E+000
       H  3.5991924670952677E+000  1.4886003854779668E+001  5.0090226178561057E+000
       O  2.9768511288827555E+000  1.4283414668779582E+001  5.4015949652590853E+000
       H -6.8911081930976827E+000 -6.1404841576477853E+000  1.5147932540697340E+001
       H -6.0175861751833084E+000 -5.0258520335640080E+000  1.5528999805811338E+001
       O -6.8993081398076175E+000 -5.1819313752744129E+000  1.5179399242150383E+001
       H  1.7990798531507796E+001  7.6590797480789485E-001  1.4532283822044430E+001
       H  1.7395185448613997E+001  9.4646404410038609E-001  1.3064113538152522E+001
       O  1.7364451988987760E+001  1.2825893488188371E+000  1.3916234370397722E+001
       H  1.6773649220804010E+001 -5.3077253486313802E+000  2.9993806160488269E+001
       H  1.5631355513963717E+001 -4.2780104534512535E+000  3.0426325906658104E+001
       O  1.6293675429261601E+001 -4.5827082146621994E+000  2.9696347930724965E+001
       H  1.9090553514422510E+001  1.1130230843867084E+000  2.1457571159042846E+001
       H  1.8807945389513890E+001  7.9279316545521927E-001  2.2889759388200243E+001
       O  1.9367298713195360E+001  1.4259164701303448E+000  2.2311806849464617E+001
       H  9.8247176817677140E+000  2.9138759264220909E-001 -3.5796269165175403E+000
       H  1.0540608144225368E+001 -8.7837626306060379E-001 -4.2882999761599567E+000
       O  1.0155108763491430E+001 -5.8312029714979341E-001 -3.3939294022614850E+000
       H  8.7646627548821776E+000 -6.0575255218020887E+000 -3.4353700575262227E+000
       H  7.4967986763670567E+000 -6.1384327076986551E+000 -4.3695010282276314E+000
       O  8.4290430577292614E+000 -5.8308926352588308E+000 -4.2961332358617534E+000
       H  3.5067205819773299E+001  1.6983760733325809E+001  1.6614914436700762E+001
       H  3.3552683856757717E+001  1.7119117911411472E+001  1.6235714941662447E+001
       O  3.4230430778968426E+001  1.6520601607291578E+001  1.6637780699173067E+001
       H  1.8257217537355842E+001  1.0650288515021469E+001  7.6308766477233299E+000
       H  1.7097269780121362E+001  1.1169873657740625E+001  8.3978818113795590E+000
       O  1.7800823230954069E+001  1.0470372331458034E+001  8.5145070178756885E+000
       H  8.9798464863729635E+000 -4.7717729764871910E+000  1.0466949303276463E+001
       H  8.3090181158931742E+000 -5.9571201500121198E+000  9.7539422324800320E+000
       O  9.0701712268967931E+000 -5.7681720278746189E+000  1.0362012339808006E+001
       H -7.8403615756337797E-001  4.4103421712583311E+000  5.8922358944283815E+000
       H -5.0084945204282671E-001  3.6842306715305364E+000  4.5626727579906623E+000
       O -5.9200901893400371E-001  3.5092510044484122E+000  5.5083682113148793E+000
       H  1.4866976597367877E+001 -1.2910244168540167E+001 -4.4586822953797736E+000
       H  1.3574059160069309E+001 -1.3597663322528833E+001 -3.4875133713524313E+000
       O  1.3946891020070897E+001 -1.2836511312129124E+001 -4.0552936535673991E+000
       H  2.2149588042570780E+001 -1.7289460718608036E+000 -5.4148068369114497E-002
       H  2.0756917511900348E+001 -1.9715768288590929E+000 -7.4298114538672932E-001