 # Version information for this restart file 
 # current date 2025-03-29 15:01:29.828
 # current working dir /ccc/scratch/cont003/gen2309/sicilana/NPT/128_H2O_4_NaCl_10_wt_673K_1000bar/BATCH_10_MD_T_673_P_1000_steps_1000_dt_0.5_NH2O_128_NaCl_4_abc_17.19_17.19_17.19_wt_9.20
 # Program compiled at                                       2024-10-31 15:04:21
 # Program compiled on                                                 topaze131
 # Program compiled for                                                   x86_64
 # Source code revision number                                                  
 &GLOBAL
   PRINT_LEVEL LOW
   PROJECT_NAME "brines"
   RUN_TYPE MD
   FLUSH_SHOULD_FLUSH T
 &END GLOBAL
 &MOTION
   &MD
     ENSEMBLE NPT_I
     STEPS 1000
     TIMESTEP  4.9999999999999994E-001
     STEP_START_VAL 25050
     TIME_START_VAL  1.2525000000007172E+004
     ECONS_START_VAL -2.4590398713531335E+003
     TEMPERATURE  6.7300000000000011E+002
     &BAROSTAT
       PRESSURE  1.0000000000000000E+003
       TIMECON  9.9999999999999986E+001
       &VELOCITY
           6.4934273439372297E-008
       &END VELOCITY
       &MASS
           4.2836593343398705E+007
       &END MASS
       &THERMOSTAT
         TYPE CSVR
         &CSVR
           TIMECON  4.8377686530095694E+001
           &THERMOSTAT_ENERGY
              -3.7824564624198140E-004
           &END THERMOSTAT_ENERGY
           &RNG_INIT
 Wiener process for Thermostat # 1        1 F T F   3.6889952235134021E-01         292579096.0        2151377177.0        1165912614.0           4013130.0        3558981110.0        3819889787.0             12345.0             12345.0             12345.0             12345.0             12345.0             12345.0             12345.0             12345.0             12345.0             12345.0             12345.0             12345.0
           &END RNG_INIT
         &END CSVR
       &END THERMOSTAT
     &END BAROSTAT
     &THERMOSTAT
       TYPE CSVR
       &CSVR
         TIMECON  4.9999999999999994E+002
         &THERMOSTAT_ENERGY
            -7.6875661776339643E-001
         &END THERMOSTAT_ENERGY
         &RNG_INIT
 Wiener process for Thermostat # 1        1 F T F  -6.4718426523805361E-01        2270678461.0        1299483967.0         551848047.0        1134946908.0         782393195.0        2873156495.0             12345.0             12345.0             12345.0             12345.0             12345.0             12345.0             12345.0             12345.0             12345.0             12345.0             12345.0             12345.0
         &END RNG_INIT
       &END CSVR
     &END THERMOSTAT
     &AVERAGES T
       &RESTART_AVERAGES
         ITIMES_START 1
         AVECPU  2.2821509830649930E+001
         AVEHUGONIOT  0.0000000000000000E+000
         AVETEMP_BARO  3.0240925484054765E+002
         AVEPOT -2.4597031159307016E+003
         AVEKIN  1.2261845676406495E+000
         AVETEMP  6.6018414341133803E+002
         AVEKIN_QM  0.0000000000000000E+000
         AVETEMP_QM  0.0000000000000000E+000
         AVEVOL  3.8185164169254153E+004
         AVECELL_A  3.3602811222456261E+001
         AVECELL_B  3.3602811222456261E+001
         AVECELL_C  3.3602811222456261E+001
         AVEALPHA  9.0000000000000000E+001
         AVEBETA  9.0000000000000000E+001
         AVEGAMMA  9.0000000000000000E+001
         AVE_ECONS -1.1933522756113946E+002
         AVE_PRESS  3.5878644586677461E+002
         AVE_PXX  3.3066186600715344E+002
       &END RESTART_AVERAGES
     &END AVERAGES
   &END MD
   &PRINT
     &TRAJECTORY SILENT
       FILENAME =brines-1.xyz
       &EACH
         MD 1
       &END EACH
     &END TRAJECTORY
     &CELL SILENT
       FILENAME =brines-1.cell_xyz
       &EACH
         MD 1
       &END EACH
     &END CELL
     &VELOCITIES SILENT
       FILENAME =brines-1.vel
       &EACH
         MD 1
       &END EACH
     &END VELOCITIES
     &FORCES SILENT
       FILENAME =brines-1.force
       &EACH
         MD 1
       &END EACH
     &END FORCES
     &STRESS SILENT
       FILENAME =brines-1.stress
       &EACH
         MD 1
       &END EACH
     &END STRESS
     &RESTART SILENT
       FILENAME =brines-1.restart
       &EACH
         MD 1
       &END EACH
     &END RESTART
     &RESTART_HISTORY SILENT
       &EACH
         MD 50
       &END EACH
     &END RESTART_HISTORY
   &END PRINT
 &END MOTION
 &FORCE_EVAL
   METHOD QS
   STRESS_TENSOR ANALYTICAL
   &DFT
     BASIS_SET_FILE_NAME /ccc/work/cont003/gen2309/sicilana/DATA_CP2K/GTH_BASIS_SETS
     POTENTIAL_FILE_NAME /ccc/work/cont003/gen2309/sicilana/DATA_CP2K/GTH_POTENTIALS
     &SCF
       MAX_SCF 50
       EPS_SCF  9.9999999999999995E-008
       &OT T
         MINIMIZER DIIS
         PRECONDITIONER FULL_SINGLE_INVERSE
       &END OT
       &OUTER_SCF T
         EPS_SCF  9.9999999999999995E-008
         MAX_SCF 50
       &END OUTER_SCF
     &END SCF
     &QS
       EPS_DEFAULT  1.0000000000000000E-014
       EPSFIT  1.0000000000000000E-004
       EPSISO  9.9999999999999998E-013
       EPSRHO0  9.9999999999999995E-007
       QUADRATURE GC_LOG
       EXTRAPOLATION ASPC
       METHOD GAPW
     &END QS
     &MGRID
       NGRIDS 4
       CUTOFF  5.0000000000000000E+002
       REL_CUTOFF  6.0000000000000000E+001
     &END MGRID
     &XC
       DENSITY_CUTOFF  1.0000000000000000E-010
       GRADIENT_CUTOFF  1.0000000000000000E-010
       TAU_CUTOFF  1.0000000000000000E-010
       &XC_FUNCTIONAL NO_SHORTCUT
         &PBE T
           PARAMETRIZATION REVPBE
         &END PBE
       &END XC_FUNCTIONAL
       &VDW_POTENTIAL
         POTENTIAL_TYPE PAIR_POTENTIAL
         &PAIR_POTENTIAL
           TYPE DFTD3
           PARAMETER_FILE_NAME /ccc/work/cont003/gen2309/sicilana/DATA_CP2K/dftd3.dat
           REFERENCE_FUNCTIONAL "PBE"
           CALCULATE_C9_TERM T
           REFERENCE_C9_TERM T
           VERBOSE_OUTPUT T
           D3_EXCLUDE_KIND 3
         &END PAIR_POTENTIAL
       &END VDW_POTENTIAL
     &END XC
     &REAL_TIME_PROPAGATION
       INITIAL_WFN RT_RESTART
     &END REAL_TIME_PROPAGATION
     &PRINT
       &MO_CUBES SILENT
         WRITE_CUBE F
         NLUMO 10
         NHOMO 2
         &EACH
           MD 200
         &END EACH
       &END MO_CUBES
     &END PRINT
   &END DFT
   &SUBSYS
     &CELL
       A  1.8913164539631289E+001  0.0000000000000000E+000  0.0000000000000000E+000
       B  0.0000000000000000E+000  1.8913164539631289E+001  0.0000000000000000E+000
       C  0.0000000000000000E+000  0.0000000000000000E+000  1.8913164539631289E+001
       MULTIPLE_UNIT_CELL 1 1 1
     &END CELL
     &COORD
       H  8.9149954792790407E+000  2.4829464581301224E+001 -3.0120341650791110E-001
       H  8.4805521175275089E+000  2.3813870186169783E+001  5.4678264047235636E-001
       O  9.1627427953426483E+000  2.3874009620191647E+001 -1.3044368905934595E-001
       H  8.6481167505918677E+000 -7.4761604002025477E+000  2.1913587023593539E+000
       H  8.2953984646792449E+000 -7.3143808513931630E+000  7.1170074311609877E-001
       O  8.8870514008174801E+000 -7.8445041074889232E+000  1.3008385745348505E+000
       H -1.2571174505378879E+001  4.8933923587999118E+001  4.6752857885734628E+001
       H -1.1650089494267631E+001  4.8809952515299592E+001  4.5692575145478784E+001
       O -1.1653569280786835E+001  4.8622123271392276E+001  4.6621180385625536E+001
       H  6.6766956023283157E+000  2.4044439454894306E+001  2.5090912299412995E+001
       H  8.1232648858533327E+000  2.3754133068067244E+001  2.4674906569250041E+001
       O  7.5753190163400195E+000  2.4003157678303406E+001  2.5425132049991564E+001
       H -8.5164386356901236E+000  6.4974859972239001E+000  5.5856814559392713E+000
       H -9.6814019652864101E+000  6.4362216585201164E+000  6.5464077054749614E+000
       O -8.8236057532355510E+000  6.9048277738387274E+000  6.4656239635269470E+000
       H  3.3668629554312673E+001  2.5038094552664781E+001 -8.5199787103292284E+000
       H  3.2987813912814566E+001  2.4784053883261063E+001 -7.2761704305631154E+000
       O  3.3502107145435353E+001  2.5448832673144931E+001 -7.6822263790536054E+000
       H -6.1899684687429417E+000  5.1099991959125433E+000  6.5778591749516497E+000
       H -6.5992712956058996E+000  5.1475896258400820E+000  8.0676551062657342E+000
       O -5.8198712175917660E+000  5.2282759445302753E+000  7.4327092893915445E+000
       H  2.4774806296562456E+001  4.5439873179994370E+000  2.4843889022676384E+000
       H  2.5034271878416178E+001  5.9532957305926688E+000  3.0661460287315236E+000
       O  2.4748969121908086E+001  5.5143988461732336E+000  2.2174592343982078E+000
       H  2.0152478882795059E+001  1.3820841762794103E+001  1.4110561515931989E+001
       H  2.0840255104879230E+001  1.3471938480327784E+001  1.5310175525246414E+001
       O  2.0003239074512742E+001  1.3805454957983427E+001  1.5048186454593919E+001
       H  2.2973656651696682E+001  1.1275547183293471E+000  2.1214251024492970E+001
       H  2.3457229717252737E+001  4.4039393753774897E-001  2.0066817792967793E+001
       O  2.2627707018535446E+001  6.5198697028892616E-001  2.0540372071658009E+001
       H  9.1440390230145479E+000 -3.7271313500416263E+000 -7.6833012528069782E+000
       H  1.0404923368314265E+001 -2.9488623207015876E+000 -7.4321483237892547E+000
       O  9.5766124926077989E+000 -2.9645461541893234E+000 -7.9725451096056563E+000
       H  1.0744564317561053E+001  3.2946542733914055E+000  1.8124325178958049E+001
       H  1.1769886011409268E+001  2.6790522223167690E+000  1.7252270903275996E+001
       O  1.1483624303963087E+001  2.6085227406885796E+000  1.8150340363827411E+001
       H  1.5337090857237063E+001  1.6924076753556434E+001  6.3874673603499428E+000
       H  1.6763666842093620E+001  1.6815608389864892E+001  6.3267939086740075E+000
       O  1.6006536041330119E+001  1.6412243231458888E+001  5.9224272378884208E+000
       H  3.6477628166623712E+000 -1.0241819387686927E+001 -7.7339096743238955E-001
       H  4.7896493037559438E+000 -1.0485670830409568E+001  1.3268653603752903E-001
       O  4.5555540336349125E+000 -1.0176037975276550E+001 -6.8207443217530594E-001
       H  3.1777209842827762E+001  3.1708887903672665E+001 -9.6691926462764277E-001
       H  3.1415430099547688E+001  3.2429796214439563E+001  4.0139681010086548E-001
       O  3.1172523584444992E+001  3.1668199308472452E+001 -2.0708671609459614E-001
       H  1.3492405596187325E+001  1.4467647595711408E+000 -6.5171779911479515E+000
       H  1.3485624703021942E+001  1.1386688917983885E+000 -8.0968645292864352E+000
       O  1.3290732104547491E+001  6.9626352643886280E-001 -7.2398700351855041E+000
       H  2.2057885146443901E+001  2.5466582082604199E+000  3.8281283706886118E+000
       H  2.2801397055839292E+001  2.7787471519901437E+000  5.0941993738652771E+000
       O  2.2870484365773521E+001  2.2611270989617549E+000  4.2952183834230695E+000
       H  8.0848911312085558E+000 -2.3242937166284201E+000  1.6874948901866222E+001
       H  6.6487713215093782E+000 -2.7652637762241428E+000  1.6978321948812987E+001
       O  7.2716726310949023E+000 -2.0228434377040401E+000  1.7233530604649573E+001
       H  4.1046921503518901E+000  1.6882953069489322E+001  8.4768149801255070E+000
       H  5.6331123390120963E+000  1.6621033812181448E+001  8.7560772639601225E+000
       O  4.8620096200650309E+000  1.6302321834097341E+001  8.1711839933889756E+000
       H  2.0348643037930824E+001  2.8771285809082048E+001  4.8909002154001167E+000
       H  1.9522558482021601E+001  2.7824052329332751E+001  4.1309088363472206E+000
       O  2.0454112311254875E+001  2.8205913150052819E+001  4.1300469052483288E+000
       H  1.5760303013143771E+001  7.3423720045753766E+000  2.0716274056314500E+001
       H  1.5161393527689654E+001  6.5268755621593719E+000  2.1888337791356303E+001
       O  1.5864489221522984E+001  7.0843154186796209E+000  2.1603749378776065E+001
       H  6.9372552823437861E+000 -1.2359932368469087E+001  1.6032015704514404E+001
       H  5.4824294588776432E+000 -1.2471255972845006E+001  1.6755134614699536E+001
       O  6.4878056060731062E+000 -1.2558183157983189E+001  1.6916248093313826E+001
       H  2.9297577608719884E+001  1.0119183403961744E+001  2.4350043238159664E+001
       H  2.9296883742061407E+001  1.0709015158883394E+001  2.2947459703156536E+001
       O  2.8695712362387518E+001  1.0588005031722769E+001  2.3679230106215229E+001
       H -1.3569960182271625E+001  8.2457654187825487E+000  1.0715624126396566E+001
       H -1.2170244879396641E+001  8.6306677348807526E+000  1.1340806355311740E+001
       O -1.3041358650825913E+001  8.1932117206671702E+000  1.1517243718351793E+001
       H  2.7860895575675308E+000  5.0745655716603997E+000  8.4224706960050923E+000
       H  1.7832478411017694E+000  4.2890010442041140E+000  9.2978466637045205E+000
       O  2.6854961027453998E+000  4.3736792994173310E+000  9.0551692856374864E+000
       H -9.9408578929881894E+000 -1.4784735338246191E+001  1.5205279746868110E+001
       H -1.1370687752841688E+001 -1.4848607218059207E+001  1.5878941981007578E+001
       O -1.0872218649633092E+001 -1.4913001651597318E+001  1.5068645171127107E+001
       H  2.5217061281948844E+001  9.7786170019181053E+000 -1.8371574409938842E+000
       H  2.6444305188362694E+001  1.0496639675149265E+001 -1.3924780590670938E+000
       O  2.5955531896190447E+001  1.0295937331626897E+001 -2.1862749238906893E+000
       H  1.3184635131111690E+001 -2.1208206808795853E+000  2.3551604264794882E+001
       H  1.1946241476446991E+001 -2.0283600807054563E+000  2.4481445687780106E+001
       O  1.2887844096056496E+001 -1.9508448811097567E+000  2.4485998295924308E+001
       H -7.9591059189586968E+000  1.0790094222933199E+001  1.4375298872231597E+000
       H -6.5872437836662829E+000  1.0197020029663793E+001  1.6635787162417175E+000
       O -7.3465319662801303E+000  1.0677687470517155E+001  2.1222882124322138E+000
       H  4.3862256995263351E+000  8.2156071341518331E+000  3.7389566062797859E+000
       H  2.9713836709291579E+000  8.4809249375202551E+000  3.1503442301701821E+000
       O  3.9192047594027657E+000  8.2976693580031924E+000  2.8660855982066740E+000
       H  1.0303103844764869E+000 -1.5234418881620411E+000  3.0183918698837218E+000
       H  2.0809635093186798E+000 -2.0122232761434873E+000  1.9917680852499611E+000
       O  1.4500355865554719E+000 -2.3189286474764517E+000  2.5577181257557728E+000
       H -4.7622998728855936E+000  2.2561345610259259E+001 -2.7020139948431119E+000
       H -4.3073232929829803E+000  2.1677029188456746E+001 -1.5762109135891977E+000
       O -4.4362532570626048E+000  2.1652619522133900E+001 -2.5150882807216801E+000
       H  2.0692021179483781E+001  2.8298041988545808E+001  8.2578422268142848E+000
       H  2.0430039541434279E+001  2.7492503051267946E+001  9.5622016937752718E+000
       O  2.0314893400906715E+001  2.7503398455807172E+001  8.5155570851401539E+000
       H  3.1391389717490212E+000 -1.6305768028339305E+001 -8.3755703340151548E+000
       H  3.5694562268200194E+000 -1.7558575539889762E+001 -7.6839369826183788E+000
       O  3.8308111838526311E+000 -1.6569021271201617E+001 -7.6892609022740057E+000
       H  9.8429690959454543E+000  5.2639042904178162E+000  9.8787595986277505E+000
       H  1.0071622373342056E+001  3.9272581418041441E+000  9.2126645152724347E+000
       O  1.0388629342192592E+001  4.4080088519187397E+000  1.0017848124537029E+001
       H  9.0718790769752449E+000  1.9111099729617056E+001 -1.9986641687028406E+001
       H  9.9932708241912440E+000  2.0094732216936261E+001 -1.9423778217981596E+001
       O  9.1743767576344766E+000  1.9568139755027499E+001 -1.9158911262918831E+001
       H  1.4192891186384434E+001 -4.5030642811293546E+000 -1.3012720828232911E+001
       H  1.4695216034468883E+001 -5.5652658613068828E+000 -1.3804202912310506E+001
       O  1.4265661075585424E+001 -5.4430457133754615E+000 -1.2925182644435489E+001
       H  1.3168958944943077E+001 -2.6653317342026517E+000  2.8631444287484008E+001
       H  1.3514194245711058E+001 -1.4243383218675760E+000  2.9589534413479072E+001
       O  1.3153034845843552E+001 -1.6411941196777888E+000  2.8721790837003763E+001
       H  2.1811362665919749E+001  5.4287818249349398E+000  1.6881881108406645E+001
       H  2.2552610739080936E+001  4.2419822884827294E+000  1.6537920054811782E+001
       O  2.2539715195399857E+001  5.1891661364192760E+000  1.6375424943345539E+001
       H  1.4983090967504809E+001  2.1951192851304398E+001  1.1708238904027832E+001
       H  1.4707357804114142E+001  2.2505767287141779E+001  1.3177999536402019E+001
       O  1.4307757265320397E+001  2.2392713674049972E+001  1.2277933157168276E+001
       H  3.8689632058132721E+000  5.5063500301764918E+000  5.0164423542787144E+000
       H  2.6743434643976118E+000  5.7802032980664553E+000  6.0861992917311296E+000
       O  3.6254156178585832E+000  5.6025549802323162E+000  5.9201981360869258E+000
       H  1.7869752111947026E+001  2.1756088873578410E+001 -7.8742915573130574E+000
       H  1.6876978571107699E+001  2.1351660967865215E+001 -6.6338631435947786E+000
       O  1.7457252568571214E+001  2.2080535563377655E+001 -7.0187501842606590E+000
       H  3.7742712391988080E+000  3.6227745413463857E+001  1.2704980829420760E+001
       H  4.2373318072560329E+000  3.5279883225719608E+001  1.3958289081972511E+001
       O  3.4867849387094672E+000  3.5461410599910522E+001  1.3407355452205699E+001
       H  8.8881876805816802E+000  1.2859434423721148E+000  1.3573721942037475E+001
       H  1.0002984238640071E+001  2.4174260105783647E+000  1.3800533382644719E+001
       O  9.8023341585596455E+000  1.4385482180425926E+000  1.3746409017670532E+001
       H  1.1894304591322832E+001  1.6640219315684167E+001 -1.8705034955611950E+001
       H  1.1582813525511163E+001  1.7278870427670824E+001 -1.7252495509215830E+001
       O  1.1685768467298274E+001  1.6434394333221199E+001 -1.7783139961491376E+001
       H -9.0682985062995627E+000  1.2502306978097572E+001  5.2905432881881573E+000
       H -7.9945305941113265E+000  1.3406915899724174E+001  5.8124058827725147E+000
       O -8.5610128214595758E+000  1.3308088217734218E+001  5.1075318481115204E+000
       H  6.5309422607222247E+000  3.3917130825504408E+001  1.3717849041352681E+001
       H  7.0850437411194260E+000  3.5204367001656784E+001  1.4521417779232625E+001
       O  6.4350457817817013E+000  3.4898562111899167E+001  1.3862728157961847E+001
       H  6.7857711392928577E+000  7.8991138414595836E+000  1.3994401361744819E+001
       H  7.2521833042502672E+000  6.5316970459360677E+000  1.3330244623438229E+001
       O  7.1648550125819721E+000  6.9885266087719913E+000  1.4186056316556323E+001
       H -5.6964522301380160E-001  1.8668070484173160E+001  3.8743315908148829E-001
       H -6.0241282518912864E-001  2.0026271303315035E+001  1.1689312951177528E+000
       O -1.9463839136757435E-001  1.9164269954995046E+001  1.1652755626096316E+000
       H -4.7649989710129610E+000  1.7730157261556528E+001  2.2108478240349442E+001
       H -4.0495804974868008E+000  1.8946364996951591E+001  2.1548380108289095E+001
       O -4.7915467852608771E+000  1.8331994824865163E+001  2.1289158783371853E+001
       H  1.9544060803981779E+001 -5.1433503469089148E-001  6.6100235013132069E+000
       H  1.9694024242939665E+001 -1.7767583838013052E+000  7.0796120022506877E+000
       O  1.9025894516974898E+001 -1.3101664173901775E+000  6.6208286263780245E+000
       H -3.1128748620790976E+001  7.4488440939975460E+000  2.3661503672406802E+001
       H -3.2372119664805552E+001  7.2781749989278097E+000  2.4543205829594555E+001
       O -3.1884964365992939E+001  6.8886698668098285E+000  2.3757444886995874E+001
       H  1.1371360937210307E+001  8.2256450359768749E+000  1.3159488844796275E+001
       H  1.1355179085272148E+001  9.1523108816275140E+000  1.4196658866903238E+001
       O  1.1954730036929819E+001  8.4362284067445259E+000  1.3915800353937851E+001
       H  1.7406663428639689E+001 -1.6370887740886779E+001  2.6293963856665052E+001
       H  1.6494581962875138E+001 -1.6479045549591078E+001  2.7526366378093581E+001
       O  1.7099898389714138E+001 -1.7022917191883423E+001  2.6976457527293160E+001
       H -1.3042783379909217E+000  1.7541352044319289E+001 -5.9678656211846697E+000
       H  3.0904339542496686E-002  1.7403642254429663E+001 -5.4613169380430815E+000
       O -4.2355394421500953E-001  1.7237752922180217E+001 -6.2925806124472130E+000
       H  1.7059891052996974E+001  1.1949221713685485E+001  1.7373802806483418E+001
       H  1.5618888575214164E+001  1.2152900283882227E+001  1.7042345156462755E+001
       O  1.6287484226598984E+001  1.1453691382464687E+001  1.6896212663759190E+001
       H  3.0385521011994561E+000  1.0173104263512620E+001  2.4715376329086464E+001
       H  2.6291515274609170E+000  1.1324466138048772E+001  2.5725745322808262E+001
       O  3.2233242475619845E+000  1.1122873298591013E+001  2.4922664812326328E+001
       H  1.4017487174350600E+000 -7.7575163303825274E+000 -3.1764463286394236E+000
       H  6.2985385442441222E-001 -6.6269490515368394E+000 -2.3002534010062328E+000
       O  1.1934585555617911E+000 -7.4377686671736498E+000 -2.2736213187897754E+000
       H  3.9752217901260121E+000  7.3060546745811257E+000  1.4778368870198237E+001
       H  4.3241212918765131E+000  8.6367201472490276E+000  1.5330875687654562E+001
       O  3.5304623827833042E+000  8.2336776696181655E+000  1.5087248345263037E+001
       H  7.9732399558785492E+000  2.4624564418117860E+001  3.0177200835061200E+001
       H  8.5005580427828473E+000  2.3899636637632753E+001  3.1487521191960230E+001
       O  7.7321099866729188E+000  2.4210031450692512E+001  3.1031087921659672E+001
       H  8.7664282425060076E+000  3.3384843707323434E+001 -6.6451059197182927E-001
       H  1.0108795721715317E+001  3.2496594044379229E+001 -4.7747896369465942E-001
       O  9.2249370220039335E+000  3.2563612248997899E+001 -8.7221348961496581E-001
       H  1.2756623027972751E+000  1.0504483889649689E+001  1.3560215479124368E+001
       H  2.4762608381418851E+000  9.7487212013761315E+000  1.4282827232779340E+001
       O  2.0616862029300176E+000  1.0683966543944464E+001  1.4115891932519093E+001
       H  1.5752864431354450E+001  1.0346797763691978E+001 -1.6919784368523445E+001
       H  1.5119999041421998E+001  1.1253472884418580E+001 -1.8097251590165076E+001
       O  1.4971161429591566E+001  1.0505860201003193E+001 -1.7519433143346017E+001
       H  1.0980769129569412E+001 -1.9939971910466965E+000  1.6746981410401084E+001
       H  1.1964218413161323E+001 -3.1671572116183508E+000  1.6582766639114478E+001
       O  1.1231555834901627E+001 -2.8688524709126408E+000  1.7227999399318307E+001
       H  1.4040354306799166E+001  3.8267763052297656E+000  2.1275345277868151E+001
       H  1.2971042130563132E+001  4.4475491384921764E+000  2.0290335163614579E+001
       O  1.3534287003656733E+001  4.6736039682643398E+000  2.1022978707825050E+001
       H  2.8989951439605676E+001 -1.8696059585021878E+000  2.2290358651830044E+001
       H  2.8571908864653579E+001 -2.9221214453218880E-001  2.2762411465073132E+001
       O  2.9076364161313698E+001 -1.0826511867930126E+000  2.2903553886710611E+001
       H  1.6639571188558403E+001  1.5602550197541802E+001  1.5262576761222181E+001
       H  1.7488236254917165E+001  1.4185110309976150E+001  1.5215065151198658E+001
       O  1.6618768545478616E+001  1.4606415559844962E+001  1.5493864722968061E+001
       H  1.1024604623689269E+001  5.7974816605456239E+000 -5.3045302533858596E+000
       H  1.0971357864110342E+001  5.0115204769922563E+000 -6.6934639160997005E+000
       O  1.0838932021104679E+001  4.9040061566201372E+000 -5.7421060736103948E+000
       H -1.3966743048856933E+000  1.0403726168029577E+001 -4.2159890773600424E+000
       H -1.3687849026230163E+000  1.1714899501617912E+001 -4.8860336406324869E+000
       O -1.2204752447198224E+000  1.0830077508496906E+001 -5.0642858627880880E+000
       H  9.9081328584917046E+000  8.0385463619683417E+000  9.5892799862026816E+000
       H  8.3237903329175342E+000  8.0854874512453332E+000  9.3647465555321716E+000
       O  9.0830721546699333E+000  7.4892058404815929E+000  9.6119180004395108E+000
       H -1.2994693884917371E+001 -2.5273109822127240E+000  3.6494444555323704E+000
       H -1.3487851014122176E+001 -1.1890997638646099E+000  3.6320549814601368E+000
       O -1.3810981944869491E+001 -2.0283682089419259E+000  3.8250271227288355E+000
       H  1.0201360769130559E+000  8.9407891741109164E+000 -6.7379710491289337E+000
       H  1.2189932962632517E+000  7.4903119923628587E+000 -6.7949453803644007E+000
       O  1.6956124136846855E+000  8.3402169194496540E+000 -7.1371607307751290E+000
       H  1.4307235902163745E+001  8.7523106886553013E+000  6.6204518328245436E+000
       H  1.4901544079067444E+001  1.0202830287666396E+001  6.5344999152531669E+000
       O  1.4961660178054897E+001  9.4247102071424358E+000  7.0147883174922967E+000
       H  3.3349989585368705E+000  1.0895256381622096E+001  2.3412669957974401E+000
       H  4.5480640801716641E+000  1.0551736269053432E+001  1.5018694882117825E+000
       O  4.0390169297156788E+000  1.1365691997868440E+001  1.7698462581186254E+000
       H  1.3112563055577846E+001  1.3169147562824838E+001 -6.7341136974162392E+000
       H  1.4116550849428844E+001  1.3538807295059044E+001 -5.5425314155654952E+000
       O  1.4042354412983903E+001  1.3530223312219920E+001 -6.5355206180257968E+000
       H  1.3460236375608472E+001  1.9156166497190004E+001  1.4974001080202569E+001
       H  1.3458222670384499E+001  2.0111480627270115E+001  1.6330182384229136E+001
       O  1.3036601678875241E+001  1.9312700112266732E+001  1.5860694460624243E+001
       H  5.4895143607428087E+000 -6.7071001176225069E+000 -1.2246755305658235E+001
       H  6.4801439875566071E+000 -5.6231129858168742E+000 -1.1799200677144544E+001
       O  5.7159399859684994E+000 -6.1740595960409062E+000 -1.1464097376013902E+001
       H  8.5208699534430554E+000  8.5008118791879088E+000  3.1620435626212786E+000
       H  8.9398670806551568E+000  7.3050260263321256E+000  2.2843976562894879E+000
       O  8.4450123492723961E+000  7.5574480268957265E+000  3.0863551008169061E+000
       H  1.1100924843903458E+001  1.1535611092845834E+001  9.6703173242257936E+000
       H  1.1821805171059571E+001  1.0712477593463001E+001  1.0679465519812485E+001
       O  1.1155992619633777E+001  1.0650832227535703E+001  9.9343664052650702E+000
       H  5.8204271437351685E-001  7.4963780029292229E-002 -9.7483619846528633E+000
       H -2.2735544364744512E-001  1.3076467602988047E+000 -1.0224391239476057E+001
       O  2.6324645827483018E-001  9.5788799247478063E-001 -9.5040694119139228E+000
       H  2.3090325949612160E+000  1.4665380328647871E+001  5.7437217544310961E+000
       H  3.6039255961702819E+000  1.5306233869145183E+001  5.3487172062880441E+000
       O  3.2654168083792361E+000  1.4446917471565300E+001  5.5198801564293527E+000
       H -8.2876171899029991E+000 -5.3221843669542457E+000  1.4946949580622826E+001
       H -7.2648051733325056E+000 -5.6262898119694933E+000  1.6015654901975466E+001
       O -7.2997026037032260E+000 -5.3897926306258590E+000  1.5089024302448793E+001
       H  1.6607450682119815E+001  6.1150189421873047E-001  1.4374314050484005E+001
       H  1.5842167251920149E+001  3.3770386018832149E-001  1.3036302514761125E+001
       O  1.6135662880542220E+001  1.0044717420534053E+000  1.3596791577474642E+001
       H  1.7963464108120167E+001 -6.0850744392599863E+000  2.9652219367292307E+001
       H  1.6621567917725823E+001 -5.5701312069792772E+000  3.0287207114269446E+001
       O  1.7275902720235052E+001 -5.3921013867003742E+000  2.9513381220402454E+001
       H  1.9588662560961602E+001  1.4774872520716567E+000  2.1644700988496666E+001
       H  1.8971966991107792E+001  8.6084882714022004E-001  2.2902370891535107E+001
       O  1.9532232213720235E+001  1.6631060873966848E+000  2.2592415291269692E+001
       H  1.0042901642994531E+001  5.2356919912167671E-004 -4.1555913055694242E+000
       H  1.1055883764223218E+001 -3.0533191576108282E-001 -3.1159132802223284E+000
       O  1.0310044059996532E+001 -6.8551439972082873E-001 -3.6271090325229203E+000
       H  9.1811001418581988E+000 -6.0314338478005363E+000 -2.8435507626819736E+000
       H  7.8903426651475508E+000 -6.3375776600216644E+000 -3.7624217644270224E+000
       O  8.7473523693352586E+000 -5.9134685526052539E+000 -3.7612097212704634E+000
       H  3.4445889459373902E+001  1.7646991729753424E+001  1.6816778564676699E+001
       H  3.2892358548916867E+001  1.7822329595880866E+001  1.6579354777236997E+001
       O  3.3545481184256566E+001  1.7526244994902509E+001  1.7221007386374929E+001
       H  1.8939769727212852E+001  1.0591603209626310E+001  8.9926975514085541E+000
       H  1.7542457501930645E+001  1.1075305244191998E+001  9.1011336876615854E+000
       O  1.8076603287350366E+001  1.0268026273795531E+001  9.1173536835811078E+000
       H  7.5225958284609149E+000 -5.5821141363129074E+000  1.0272042253376386E+001
       H  7.8463215780766902E+000 -6.9651260404509010E+000  9.9714002236225330E+000
       O  8.0718972967656999E+000 -6.2509586139284554E+000  1.0672019916852065E+001
       H  4.9654431847925573E-001  4.4020815073635999E+000  7.0178035555986220E+000
       H  6.7182052091144639E-001  3.7930673863522992E+000  5.7186977354632402E+000
       O  3.4368287398741981E-001  3.5757777469307404E+000  6.5775175101776853E+000
       H  1.5125411063744293E+001 -1.2503943980472336E+001 -3.5295522158745269E+000
       H  1.4306308952190824E+001 -1.3415329483565085E+001 -4.5718429731533723E+000
       O  1.4459176550299741E+001 -1.3135094428868470E+001 -3.6977045634035091E+000
       H  2.1834533909769796E+001 -1.3492798770743206E+000 -6.1557926806582619E-001
       H  2.1096111987992828E+001 -2.4691072360122122E+000 -1.2202824068343681E+000