 # Version information for this restart file 
 # current date 2025-03-29 17:28:20.166
 # current working dir /ccc/scratch/cont003/gen2309/sicilana/NPT/128_H2O_4_NaCl_10_wt_673K_1000bar/BATCH_10_MD_T_673_P_1000_steps_1000_dt_0.5_NH2O_128_NaCl_4_abc_17.19_17.19_17.19_wt_9.20
 # Program compiled at                                       2024-10-31 15:04:21
 # Program compiled on                                                 topaze131
 # Program compiled for                                                   x86_64
 # Source code revision number                                                  
 &GLOBAL
   PRINT_LEVEL LOW
   PROJECT_NAME "brines"
   RUN_TYPE MD
   FLUSH_SHOULD_FLUSH T
 &END GLOBAL
 &MOTION
   &MD
     ENSEMBLE NPT_I
     STEPS 1000
     TIMESTEP  4.9999999999999994E-001
     STEP_START_VAL 25400
     TIME_START_VAL  1.2700000000007343E+004
     ECONS_START_VAL -2.4590398713531335E+003
     TEMPERATURE  6.7300000000000011E+002
     &BAROSTAT
       PRESSURE  1.0000000000000000E+003
       TIMECON  9.9999999999999986E+001
       &VELOCITY
          -4.8925268986607451E-006
       &END VELOCITY
       &MASS
           4.2836593343398705E+007
       &END MASS
       &THERMOSTAT
         TYPE CSVR
         &CSVR
           TIMECON  4.8377686530095694E+001
           &THERMOSTAT_ENERGY
              -8.3016039028804345E-004
           &END THERMOSTAT_ENERGY
           &RNG_INIT
 Wiener process for Thermostat # 1        1 F T F   4.6846795935449947E-01        1261432924.0         991028189.0        1207611593.0        3255208918.0        2656941552.0        2169485385.0             12345.0             12345.0             12345.0             12345.0             12345.0             12345.0             12345.0             12345.0             12345.0             12345.0             12345.0             12345.0
           &END RNG_INIT
         &END CSVR
       &END THERMOSTAT
     &END BAROSTAT
     &THERMOSTAT
       TYPE CSVR
       &CSVR
         TIMECON  4.9999999999999994E+002
         &THERMOSTAT_ENERGY
            -7.8989631277912831E-001
         &END THERMOSTAT_ENERGY
         &RNG_INIT
 Wiener process for Thermostat # 1        1 F T F  -6.3437977256537148E-01        3178719237.0        2643932768.0         699344851.0        3481658197.0        1427924443.0        2421104378.0             12345.0             12345.0             12345.0             12345.0             12345.0             12345.0             12345.0             12345.0             12345.0             12345.0             12345.0             12345.0
         &END RNG_INIT
       &END CSVR
     &END THERMOSTAT
     &AVERAGES T
       &RESTART_AVERAGES
         ITIMES_START 1
         AVECPU  2.2853912178804919E+001
         AVEHUGONIOT  0.0000000000000000E+000
         AVETEMP_BARO  3.0113196048147933E+002
         AVEPOT -2.4597074042172353E+003
         AVEKIN  1.2253601042395363E+000
         AVETEMP  6.5974024803163456E+002
         AVEKIN_QM  0.0000000000000000E+000
         AVETEMP_QM  0.0000000000000000E+000
         AVEVOL  3.8289697395529001E+004
         AVECELL_A  3.3632685257683406E+001
         AVECELL_B  3.3632685257683406E+001
         AVECELL_C  3.3632685257683406E+001
         AVEALPHA  9.0000000000000000E+001
         AVEBETA  9.0000000000000000E+001
         AVEGAMMA  9.0000000000000000E+001
         AVE_ECONS -1.2268066462316850E+002
         AVE_PRESS  3.6886196200891965E+002
         AVE_PXX  3.3349775412609455E+002
       &END RESTART_AVERAGES
     &END AVERAGES
   &END MD
   &PRINT
     &TRAJECTORY SILENT
       FILENAME =brines-1.xyz
       &EACH
         MD 1
       &END EACH
     &END TRAJECTORY
     &CELL SILENT
       FILENAME =brines-1.cell_xyz
       &EACH
         MD 1
       &END EACH
     &END CELL
     &VELOCITIES SILENT
       FILENAME =brines-1.vel
       &EACH
         MD 1
       &END EACH
     &END VELOCITIES
     &FORCES SILENT
       FILENAME =brines-1.force
       &EACH
         MD 1
       &END EACH
     &END FORCES
     &STRESS SILENT
       FILENAME =brines-1.stress
       &EACH
         MD 1
       &END EACH
     &END STRESS
     &RESTART SILENT
       FILENAME =brines-1.restart
       &EACH
         MD 1
       &END EACH
     &END RESTART
     &RESTART_HISTORY SILENT
       &EACH
         MD 50
       &END EACH
     &END RESTART_HISTORY
   &END PRINT
 &END MOTION
 &FORCE_EVAL
   METHOD QS
   STRESS_TENSOR ANALYTICAL
   &DFT
     BASIS_SET_FILE_NAME /ccc/work/cont003/gen2309/sicilana/DATA_CP2K/GTH_BASIS_SETS
     POTENTIAL_FILE_NAME /ccc/work/cont003/gen2309/sicilana/DATA_CP2K/GTH_POTENTIALS
     &SCF
       MAX_SCF 50
       EPS_SCF  9.9999999999999995E-008
       &OT T
         MINIMIZER DIIS
         PRECONDITIONER FULL_SINGLE_INVERSE
       &END OT
       &OUTER_SCF T
         EPS_SCF  9.9999999999999995E-008
         MAX_SCF 50
       &END OUTER_SCF
     &END SCF
     &QS
       EPS_DEFAULT  1.0000000000000000E-014
       EPSFIT  1.0000000000000000E-004
       EPSISO  9.9999999999999998E-013
       EPSRHO0  9.9999999999999995E-007
       QUADRATURE GC_LOG
       EXTRAPOLATION ASPC
       METHOD GAPW
     &END QS
     &MGRID
       NGRIDS 4
       CUTOFF  5.0000000000000000E+002
       REL_CUTOFF  6.0000000000000000E+001
     &END MGRID
     &XC
       DENSITY_CUTOFF  1.0000000000000000E-010
       GRADIENT_CUTOFF  1.0000000000000000E-010
       TAU_CUTOFF  1.0000000000000000E-010
       &XC_FUNCTIONAL NO_SHORTCUT
         &PBE T
           PARAMETRIZATION REVPBE
         &END PBE
       &END XC_FUNCTIONAL
       &VDW_POTENTIAL
         POTENTIAL_TYPE PAIR_POTENTIAL
         &PAIR_POTENTIAL
           TYPE DFTD3
           PARAMETER_FILE_NAME /ccc/work/cont003/gen2309/sicilana/DATA_CP2K/dftd3.dat
           REFERENCE_FUNCTIONAL "PBE"
           CALCULATE_C9_TERM T
           REFERENCE_C9_TERM T
           VERBOSE_OUTPUT T
           D3_EXCLUDE_KIND 3
         &END PAIR_POTENTIAL
       &END VDW_POTENTIAL
     &END XC
     &REAL_TIME_PROPAGATION
       INITIAL_WFN RT_RESTART
     &END REAL_TIME_PROPAGATION
     &PRINT
       &MO_CUBES SILENT
         WRITE_CUBE F
         NLUMO 10
         NHOMO 2
         &EACH
           MD 200
         &END EACH
       &END MO_CUBES
     &END PRINT
   &END DFT
   &SUBSYS
     &CELL
       A  1.8778746686926631E+001  0.0000000000000000E+000  0.0000000000000000E+000
       B  0.0000000000000000E+000  1.8778746686926631E+001  0.0000000000000000E+000
       C  0.0000000000000000E+000  0.0000000000000000E+000  1.8778746686926631E+001
       MULTIPLE_UNIT_CELL 1 1 1
     &END CELL
     &COORD
       H  9.1252135148549538E+000  2.3726812464494181E+001 -3.5924615499776885E-001
       H  8.4573975041970968E+000  2.2906675577831127E+001  8.7427314157224667E-001
       O  9.3430155127548851E+000  2.3168358478204517E+001  4.2665353881853246E-001
       H  9.1057606736509875E+000 -7.4328341672064733E+000  2.2650533809243747E+000
       H  9.0895947080663859E+000 -7.5296071048205899E+000  7.4644488987436219E-001
       O  8.6810937714192438E+000 -7.0224456816174987E+000  1.5169783375055685E+000
       H -1.0162793212511477E+001  4.6863903962115138E+001  4.7059597093113602E+001
       H -1.0710793818669272E+001  4.7259099117341350E+001  4.5612805640318214E+001
       O -1.0624133831416394E+001  4.7550031967913334E+001  4.6529610861065123E+001
       H  7.4140312699425666E+000  2.2925226168441451E+001  2.6026753383774999E+001
       H  8.5486693188654588E+000  2.3554427068427060E+001  2.6713927693860995E+001
       O  8.2649267522981393E+000  2.3314889699059218E+001  2.5799792767106393E+001
       H -8.5594379055145424E+000  5.8117554155559228E+000  6.2990893192417658E+000
       H -7.3880475697402836E+000  5.6656164008733683E+000  7.1714003093653105E+000
       O -7.8835033318955441E+000  6.3957138958325670E+000  6.7529282216779203E+000
       H  3.3838382195669382E+001  2.5624733341501418E+001 -6.8215423836272224E+000
       H  3.2433814190874571E+001  2.5406406912146398E+001 -6.5845107847957607E+000
       O  3.3014015272748729E+001  2.6033139647985436E+001 -6.9598518327925207E+000
       H -5.5334715457655710E+000  5.0119594118699311E+000  8.1911247752508007E+000
       H -6.6348609183863330E+000  4.2194390718087025E+000  9.0256579701956472E+000
       O -5.9163802587390917E+000  4.0936589029418560E+000  8.3374929933102955E+000
       H  2.4715544486964983E+001  4.8256833198413256E+000  1.7879207170934497E+000
       H  2.4570868309157682E+001  3.3870986790143305E+000  9.1380822657996363E-001
       O  2.5119524221508538E+001  4.2016461333526536E+000  1.1608006340631969E+000
       H  2.0449508956006166E+001  1.3936020013007266E+001  1.4436308603982203E+001
       H  2.1000410125229649E+001  1.2858166221198070E+001  1.3510742940852612E+001
       O  2.1104380780279758E+001  1.3756784204458272E+001  1.3764948855406658E+001
       H  2.2908372594468929E+001  4.9948989153935514E-001  2.0585738271487699E+001
       H  2.3315517399327451E+001 -9.2873851449957767E-001  1.9962972174061647E+001
       O  2.2555411338697002E+001 -3.9593280894365868E-001  2.0218783428684031E+001
       H  1.0129283785692264E+001 -1.6058943071779006E+000 -7.6629525530014027E+000
       H  9.1466156437446529E+000 -2.8611701744739966E+000 -7.4005322800821283E+000
       O  9.3349832400802146E+000 -2.1355805970932624E+000 -7.9795477945880879E+000
       H  1.2571413649933268E+001  2.1965664350067100E+000  1.9301488451961546E+001
       H  1.1142179357774413E+001  2.7911363849509421E+000  1.9679844012492584E+001
       O  1.2106261525930368E+001  2.8376838361680132E+000  1.9882174756673976E+001
       H  1.5539048880659029E+001  1.5465559605477715E+001  5.7541685281397683E+000
       H  1.6863157591853909E+001  1.6609894447375776E+001  5.4458604893563836E+000
       O  1.6245239827847875E+001  1.5840579580104652E+001  5.1434489623497930E+000
       H  4.4874972147044074E+000 -1.0601498890184095E+001  3.1545531575900176E-001
       H  4.4427954213786860E+000 -1.0104242251012666E+001 -1.0472160571562668E+000
       O  5.0945919799197688E+000 -1.0165717587131001E+001 -2.8959269334743937E-001
       H  3.0205499140473911E+001  3.3288742403567063E+001 -1.3146490046043185E-001
       H  3.1271797497182458E+001  3.2648727389198442E+001 -8.9096770454048702E-001
       O  3.0471523039079269E+001  3.2405724095463945E+001 -5.0566337759731883E-001
       H  1.4209641561145380E+001  2.8647290935770114E-001 -8.6018076638885983E+000
       H  1.2970102108692124E+001 -4.5887750395604165E-001 -9.0041772056680820E+000
       O  1.3200097518298127E+001  3.7224601722374756E-001 -8.6132541577827748E+000
       H  2.0994379935189468E+001  1.1504080416330378E+000  5.8566343401103342E+000
       H  2.1502637757971677E+001  1.2591211821229116E+000  4.4125991978396151E+000
       O  2.1544998916372819E+001  1.7055247140581702E+000  5.2649373139429905E+000
       H  7.2250655904983923E+000 -2.9932022594639700E+000  1.6782300426134015E+001
       H  8.1533732104303986E+000 -1.8595541504542970E+000  1.7084781056859502E+001
       O  7.7151132889891407E+000 -2.5859671990186044E+000  1.7585733503529543E+001
       H  4.1178609502008312E+000  1.7094432772886428E+001  7.8088321904332849E+000
       H  5.7524614796475122E+000  1.6908776332038222E+001  7.6814240183418141E+000
       O  4.8833419110908238E+000  1.6564867468072269E+001  8.0001736509741566E+000
       H  1.9788629434881305E+001  2.6285602986522012E+001  4.0324693695079423E+000
       H  2.1058185118563937E+001  2.7010085708282162E+001  4.1353097507985339E+000
       O  2.0495952364366993E+001  2.6547692300599717E+001  3.4748526370282451E+000
       H  1.5156275747587742E+001  7.4198156417350152E+000  2.0913498798450760E+001
       H  1.5612944214899672E+001  8.7630498855449623E+000  2.0538393218166210E+001
       O  1.5806721949261602E+001  8.0437960691539896E+000  2.1195488354571488E+001
       H  8.0246488633854689E+000 -1.2868477622642894E+001  1.6203070002910966E+001
       H  7.0569587622078229E+000 -1.2874105664025270E+001  1.7313035015185839E+001
       O  7.9593405882381187E+000 -1.3124671466611552E+001  1.7107385688881632E+001
       H  2.9744872751494999E+001  1.0746687678890467E+001  2.3622791123843868E+001
       H  2.9614979613894199E+001  1.2106895330583267E+001  2.2749519361538855E+001
       O  2.9305314470302452E+001  1.1598933842658463E+001  2.3527389507442429E+001
       H -1.4847801708101700E+001  7.8243701710546585E+000  1.1885605473018018E+001
       H -1.4868803311464731E+001  8.9568926765550465E+000  1.2772351799004531E+001
       O -1.4877287959543830E+001  7.9949856258076997E+000  1.2820488386389972E+001
       H  2.1037869750092528E+000  5.6805266870605857E+000  7.8397626822094306E+000
       H  1.7590107178453023E+000  4.2569500857415203E+000  7.7309182353217087E+000
       O  1.7437727456578966E+000  4.9495302527194376E+000  8.4005830187473158E+000
       H -9.9433010938303230E+000 -1.5293452294217550E+001  1.6026688105902423E+001
       H -9.3768307183331636E+000 -1.5869346769047221E+001  1.4722861991083018E+001
       O -9.5206040401195171E+000 -1.6106456684815445E+001  1.5685469755042401E+001
       H  2.5054535709535106E+001  9.5709339724161655E+000 -1.3380756161427778E+000
       H  2.5459351046291779E+001  1.1110375376768582E+001 -1.1525256462404676E+000
       O  2.5378719016788143E+001  1.0409367653011799E+001 -1.8754334849031551E+000
       H  1.3075979139579704E+001 -2.6247427767541995E+000  2.5995351411968578E+001
       H  1.3056487645530902E+001 -1.9321671170974259E+000  2.4656479088861300E+001
       O  1.2604435815156759E+001 -2.6103583140895084E+000  2.5172935256190879E+001
       H -6.8846777077081178E+000  1.0844313115092685E+001 -2.8771037654425602E-001
       H -6.8196041236416480E+000  1.1377299490816377E+001  1.2355375467467318E+000
       O -6.8775075170213871E+000  1.0556166446414281E+001  6.4549372500526225E-001
       H  4.3474893638554555E+000  7.5845461488093822E+000  2.3804214353583291E+000
       H  2.9710154493898528E+000  6.8705267905437628E+000  1.8728675209704757E+000
       O  3.6917281898655911E+000  7.4616383291259076E+000  1.6604196398912960E+000
       H  3.7638338535592913E-001 -1.5063652254436488E+000  4.3821792466486862E+000
       H  9.3780420123314934E-001 -1.0032827847568895E+000  3.1495611308446838E+000
       O  1.1171259873203769E+000 -1.7768836768975578E+000  3.6457369678269145E+000
       H -4.0170699776592054E+000  2.1750500514845015E+001 -3.6719013141945807E+000
       H -2.8757726262558836E+000  2.1197086645851673E+001 -2.7595634623738161E+000
       O -3.7849243562215285E+000  2.1646457823150001E+001 -2.7695971299306130E+000
       H  2.1538740325131261E+001  2.7479320163374258E+001  9.4366456941549259E+000
       H  2.0438493549243809E+001  2.6966044683244125E+001  8.5159622024810435E+000
       O  2.0675057240092457E+001  2.6923103195652921E+001  9.4171166782962104E+000
       H  2.7102822030563671E+000 -1.7051839608013175E+001 -7.6084659680149951E+000
       H  1.8621346774178640E+000 -1.8191676515535594E+001 -6.9006982843852729E+000
       O  2.3391360293289294E+000 -1.7425719760931550E+001 -6.7879893031346361E+000
       H  9.9931141329099464E+000  4.4480709748758054E+000  1.0539777472566772E+001
       H  9.9835963243339432E+000  3.8615217081309465E+000  9.0436817405161118E+000
       O  1.0363910344512533E+001  4.5780016817856808E+000  9.6247600339921853E+000
       H  9.6031042328148910E+000  1.8494036598750139E+001 -1.8531701633499083E+001
       H  9.2022531362973599E+000  1.9992302762198804E+001 -1.8583755785290233E+001
       O  9.9449613089793978E+000  1.9431189292321736E+001 -1.8661691943335022E+001
       H  1.4087564963315879E+001 -6.1118237049345225E+000 -1.4005707071140362E+001
       H  1.4477882174093526E+001 -4.6892781180311074E+000 -1.4427288909573427E+001
       O  1.4642237564154447E+001 -5.5937904993830712E+000 -1.4584444881631104E+001
       H  1.2717311872027771E+001 -2.7835740777399631E+000  2.8787612990594109E+001
       H  1.4227411503601282E+001 -2.6399477165541949E+000  2.8488630498018399E+001
       O  1.3267469214613454E+001 -2.5454054358474325E+000  2.8071385984644383E+001
       H  2.2579290507379866E+001  4.0796411906471786E+000  1.5539412648660882E+001
       H  2.1404849950250618E+001  4.9595264606931044E+000  1.6126737441475996E+001
       O  2.1758134624386969E+001  4.0713167114989730E+000  1.6016279444711017E+001
       H  1.3340004967450515E+001  2.1597964335705377E+001  1.2160901941618903E+001
       H  1.4169131274788343E+001  2.2587405992599521E+001  1.1517503584116231E+001
       O  1.3328011235275319E+001  2.2524213533638562E+001  1.2036399742377219E+001
       H  3.3006770395689600E+000  3.8874701949299113E+000  4.9021186903507861E+000
       H  2.7265708683490479E+000  5.1215696930512662E+000  4.4539288342686438E+000
       O  3.4847531719553193E+000  4.8136184590927620E+000  4.9475200030824897E+000
       H  1.7015227348991601E+001  2.2388595701978982E+001 -7.8222454478185259E+000
       H  1.7227725985314798E+001  2.1343757994244427E+001 -6.5774732341830315E+000
       O  1.7571846342914487E+001  2.2181974956696976E+001 -7.0510042499464838E+000
       H  3.7656834100626830E+000  3.4704039251150576E+001  1.4294570405731042E+001
       H  5.2656146154699499E+000  3.5228532823192609E+001  1.4125396284101308E+001
       O  4.2744166320654644E+000  3.5510257433222350E+001  1.4407943270509602E+001
       H  1.1540623816813147E+001  1.5170245899565717E+000  1.2790790334535064E+001
       H  1.0578016955384825E+001  1.9063621469661824E+000  1.1783749588369524E+001
       O  1.0618781834094255E+001  1.8319679527371844E+000  1.2709424768014687E+001
       H  1.2196895897921207E+001  1.7068206370435092E+001 -1.8744521234692741E+001
       H  1.3220294317027408E+001  1.6412097345320273E+001 -1.7846809804830972E+001
       O  1.2371072622969406E+001  1.6850329918630091E+001 -1.7790510623517413E+001
       H -8.2936381641985815E+000  1.3424318219964526E+001  5.9586813261809830E+000
       H -7.8579180863367935E+000  1.4796182006940738E+001  6.1142004424302794E+000
       O -8.5976240603915599E+000  1.4268890244798104E+001  5.7348299339200066E+000
       H  8.6757550479811272E+000  3.3920781290812855E+001  1.4525826799258146E+001
       H  9.0290624583483829E+000  3.5376131655130941E+001  1.4789237259801306E+001
       O  8.2604775698551283E+000  3.4811688590059731E+001  1.4719291232982391E+001
       H  6.2175675424907455E+000  7.3356596824729845E+000  1.4144973693327056E+001
       H  5.9800594305587937E+000  5.8396615806038445E+000  1.4768959215741607E+001
       O  6.5020919962712789E+000  6.6665146983299204E+000  1.4850601797147608E+001
       H -6.3009878434009070E-001  1.8572930956569390E+001 -2.6439793970778730E-001
       H -1.6912033389201648E+000  1.9566582482952921E+001  4.6653654331138239E-001
       O -7.9484428027361276E-001  1.9130118642449478E+001  5.3166251444345181E-001
       H -3.7983192287696710E+000  1.7393395057350979E+001  2.2541998452707812E+001
       H -5.1483856112700144E+000  1.8186101688784508E+001  2.2143474001114043E+001
       O -4.7404164931685902E+000  1.7370610397556966E+001  2.2562746471947378E+001
       H  1.7734374050873122E+001 -2.9017696395179404E-001  6.0178293722635869E+000
       H  1.8685997447656376E+001 -1.4854178546728196E+000  6.4144767209661673E+000
       O  1.7976126070046636E+001 -1.1939036721474059E+000  5.8341414313407771E+000
       H -3.1091621020498248E+001  7.3393242612288034E+000  2.3035533234188925E+001
       H -3.2312413202766692E+001  6.5020094138911491E+000  2.3462060336102642E+001
       O -3.1908452692811075E+001  6.9391782990836397E+000  2.2719809406004806E+001
       H  1.1136787738651375E+001  8.5091065034772111E+000  1.2360911953715858E+001
       H  1.0396288475101246E+001  8.8586687832979543E+000  1.3754477810484337E+001
       O  1.0747940409372589E+001  8.1732934044319254E+000  1.3201340125348215E+001
       H  1.7423612617344794E+001 -1.6995470656935712E+001  2.5232934689410854E+001
       H  1.6795802450412054E+001 -1.7919653324371296E+001  2.6420798596995649E+001
       O  1.7512032732141684E+001 -1.7800355198431198E+001  2.5750601333515998E+001
       H -1.9677743510796028E-001  1.5862391982495554E+001 -5.0111612182922753E+000
       H -5.4547615694031777E-002  1.7284139165480628E+001 -5.5003637316100260E+000
       O -6.5978981276563639E-002  1.6368693433278104E+001 -5.7975340689803607E+000
       H  1.8697395567308600E+001  1.1162511182122586E+001  1.5668522821647858E+001
       H  1.7424319575104757E+001  1.0555377217631040E+001  1.6330746594200285E+001
       O  1.7753651259956314E+001  1.0980066537118384E+001  1.5497025211750117E+001
       H  3.9646649022609699E+000  1.0530510832808694E+001  2.5914595250036900E+001
       H  2.4919330720130195E+000  1.0485573164812017E+001  2.5513823520973663E+001
       O  3.1821712982234476E+000  9.8974107758024363E+000  2.5606551747644385E+001
       H  2.5110752833751842E+000 -6.6589178707831751E+000 -1.1752475555910233E+000
       H  2.6250412584539005E+000 -8.0020908352036351E+000 -8.1220568652777225E-001
       O  2.1128084675469663E+000 -7.4806425260382943E+000 -1.4532621991316679E+000
       H  3.6378971981047363E+000  8.3312525840425575E+000  1.5964363451455641E+001
       H  2.6521727845773264E+000  9.5628310897316045E+000  1.6178417562699593E+001
       O  3.1235481421150011E+000  8.7247494448271183E+000  1.6611555546094078E+001
       H  7.6462161816270182E+000  2.3935947686533055E+001  3.1021031808352493E+001
       H  8.6777581608532746E+000  2.2678767845560213E+001  3.1139384181848548E+001
       O  7.7906487128119268E+000  2.3045872865762803E+001  3.1400741213057714E+001
       H  8.9869450500433725E+000  3.2240052447024389E+001 -4.5696283795819131E-001
       H  9.6987517489862078E+000  3.1994413955001885E+001 -1.6871802173617496E+000
       O  8.8269416701166232E+000  3.1825727203535614E+001 -1.3189241222154415E+000
       H  8.7785649378261577E-001  1.0520188340911789E+001  1.3362681865588240E+001
       H  5.2734163010470225E-001  1.1852588488628442E+001  1.2505915174097357E+001
       O  1.2383880896333752E+000  1.1297043415306252E+001  1.2834612972471774E+001
       H  1.5147552298323070E+001  1.1334244861446649E+001 -1.7129255960254611E+001
       H  1.3906021375899643E+001  1.0785484713582177E+001 -1.7808932424370365E+001
       O  1.4819932621609318E+001  1.1104612914562555E+001 -1.8037116754636838E+001
       H  1.1834402338706427E+001 -1.4450556958583054E+000  1.5894249050356880E+001
       H  1.0497944523979415E+001 -2.1069330927070817E+000  1.6491977284721408E+001
       O  1.1528388000070089E+001 -2.0410442704126228E+000  1.6625887356726984E+001
       H  1.4464742488425953E+001  5.3146159465048370E+000  2.0141754367260784E+001
       H  1.3335871827681306E+001  6.2168382286865400E+000  2.0339286873891851E+001
       O  1.4032582823975883E+001  5.8930987897335463E+000  2.0805923026017698E+001
       H  2.8780093072836063E+001 -8.4917027182342197E-001  2.2016690512873389E+001
       H  2.9441108153146843E+001 -2.5428222552449231E-001  2.3193951285192302E+001
       O  2.9176793277768859E+001 -1.1445227627722188E+000  2.2866959301170581E+001
       H  1.8839473074580273E+001  1.6330223645384265E+001  1.6041816103097677E+001
       H  1.8474015533292437E+001  1.4976494983625299E+001  1.6689484445181268E+001
       O  1.8944409458427657E+001  1.5325547380732326E+001  1.5944978142093829E+001
       H  1.0263616392845483E+001  5.9959965242942976E+000 -6.1949112692838861E+000
       H  1.0966122889006247E+001  5.0554112486599188E+000 -5.2049871703312860E+000
       O  1.0644563557791319E+001  5.0724982270719305E+000 -6.1273280558979524E+000
       H -2.3833898391424873E+000  1.0878974771399989E+001 -5.6199535295136469E+000
       H -2.1787088918820485E+000  1.2159753368311216E+001 -4.8536965381394328E+000
       O -2.5162397616439018E+000  1.1817566781229944E+001 -5.7465660650072952E+000
       H  9.3184517071297748E+000  7.5221088868488399E+000  1.1383534575001649E+001
       H  9.0681119636519494E+000  6.8356573290348246E+000  1.0005040283888645E+001
       O  8.6342909316442533E+000  7.3627735047996268E+000  1.0663235067495089E+001
       H -1.4447352456709194E+001 -3.3142633049906194E+000  4.2791098295847600E+000
       H -1.5462670921848325E+001 -2.5953736362848563E+000  3.2989101519571649E+000
       O -1.4687995223782355E+001 -3.1164444454347286E+000  3.3997420300557120E+000
       H  1.3071292621676405E+000  7.8144841973474382E+000 -7.3320838050642250E+000
       H -1.3480186350102566E-001  8.3041006122815695E+000 -7.0258433565385161E+000
       O  7.4863994160519365E-001  8.2738747682605815E+000 -6.6157867760198199E+000
       H  1.4204060974831407E+001  9.4997690503001433E+000  6.8358279931366770E+000
       H  1.4298767401555242E+001  1.0405619630968669E+001  8.0362468144803589E+000
       O  1.4422210275008013E+001  9.4326495907322663E+000  7.8226047228553321E+000
       H  4.1890290890409219E+000  1.0638789601371265E+001  1.1972719012619151E+000
       H  3.0438053650839629E+000  1.1288193619295447E+001  2.0547415702710370E+000
       O  3.5444254801990707E+000  1.1477600347696308E+001  1.2754471783177723E+000
       H  1.2992330290923379E+001  1.3818164391727747E+001 -6.3934181129091066E+000
       H  1.4359089420156339E+001  1.3793283920836583E+001 -5.6602393440524255E+000
       O  1.3850250602262172E+001  1.4378601091127354E+001 -6.3549577267853730E+000
       H  1.2579692894323829E+001  1.8299507690416906E+001  1.2781519635762352E+001
       H  1.3676282988515116E+001  1.8121383833374566E+001  1.3722527967628103E+001
       O  1.2767098104065555E+001  1.8591234332009190E+001  1.3726889812712791E+001
       H  6.0735546420795448E+000 -4.6761094973748234E+000 -1.2306677099417948E+001
       H  6.0618744285439634E+000 -5.6559470586933820E+000 -1.1132543875124144E+001
       O  5.4747435435843039E+000 -5.2874206415779064E+000 -1.1775288787131696E+001
       H  9.0838333404304734E+000  9.6062774463958576E+000  4.0166232254997833E+000
       H  7.6417385934699276E+000  9.6108840217090137E+000  3.6638478556651028E+000
       O  8.2949389638159090E+000  8.9756367523804581E+000  3.9472955399073881E+000
       H  1.1440662917524676E+001  9.8137641743581980E+000  1.0235506181029818E+001
       H  1.1056553645826398E+001  8.4678563816483035E+000  9.5540826690766369E+000
       O  1.0988769002631361E+001  8.9496538854603926E+000  1.0385803021670982E+001
       H  7.2411757248885944E-001  2.1216026138146690E-001 -8.8045569034681712E+000
       H  1.0973783412503195E-001  1.5736550808921725E+000 -8.6023680317565070E+000
       O -1.1873099315819173E-001  5.7468555033367175E-001 -8.5738801833591456E+000
       H  2.5104249616413483E+000  1.4777918064136152E+001  4.9087524061419545E+000
       H  2.3934322810026711E+000  1.3253915498679046E+001  4.9820711726132867E+000
       O  2.8136628454226589E+000  1.4011341131342920E+001  5.4136060158410011E+000
       H -6.8870107196373880E+000 -5.9007425654842169E+000  1.4647203602451377E+001
       H -5.6184340858825426E+000 -5.4581121993341801E+000  1.5387249448298427E+001
       O -6.5193462646756783E+000 -5.2427069332327347E+000  1.5260375390954486E+001
       H  1.7031297317028489E+001  9.1663846110495428E-001  1.4234222133501355E+001
       H  1.8173263194700414E+001  1.9028462627404106E+000  1.4392129278428561E+001
       O  1.7527097323997250E+001  1.5217439728668603E+000  1.3680018553725708E+001
       H  1.5946157521940597E+001 -5.1555852890636462E+000  2.9319694302930969E+001
       H  1.5090123293952823E+001 -4.2243864948674412E+000  3.0055481435772343E+001
       O  1.5827401246138715E+001 -4.1404028283662493E+000  2.9460493804908321E+001
       H  1.8855192384497908E+001  1.4104489156331896E+000  2.1134255811163477E+001
       H  1.8703767276801056E+001  1.6857518981029727E+000  2.2695532095076487E+001
       O  1.9306697066083856E+001  1.4195695688723604E+000  2.2023216115155531E+001
       H  9.1884000291439296E+000  5.2409491482901749E-001 -3.1533378245866781E+000
       H  1.0384558025360130E+001  4.3421415133722557E-001 -4.0911594239985432E+000
       O  9.8190226096259501E+000 -1.3560221643509640E-001 -3.6251576369031060E+000
       H  8.2900877852219761E+000 -6.1270338763440551E+000 -3.4975571067952100E+000
       H  7.4744408526082928E+000 -6.3833761514138816E+000 -4.7110724118360352E+000
       O  8.3595531043501463E+000 -6.0461278201771824E+000 -4.4881594412062222E+000
       H  3.5229443201655634E+001  1.6469884365731417E+001  1.6005018151045942E+001
       H  3.4203983496257464E+001  1.6357003061622393E+001  1.7099502365695404E+001
       O  3.4248948003805822E+001  1.6143841292521810E+001  1.6122236333946574E+001
       H  1.7605628705383829E+001  1.0868606409935824E+001  7.1806731014871099E+000
       H  1.8313042402708170E+001  1.0907521002833647E+001  8.5871151332234632E+000
       O  1.7901175545156139E+001  1.0365436455454665E+001  7.9360540207439438E+000
       H  8.4010457202347304E+000 -5.4159460658941345E+000  9.3416924137762862E+000
       H  9.2916812043981327E+000 -6.5449287091808808E+000  9.6274150652910251E+000
       O  9.1849358328045092E+000 -5.5952107336968666E+000  9.8379228309106850E+000
       H -9.6152545875408335E-001  4.0097005429445325E+000  5.9807660874194939E+000
       H -1.0392404386310847E+000  3.5815459646722752E+000  4.4462766046852167E+000
       O -1.1348800867905313E+000  3.2793911465046719E+000  5.3672546776487433E+000
       H  1.2756453393283941E+001 -1.3356539168604908E+001 -4.0370400006685703E+000
       H  1.4026535441479604E+001 -1.3586216890543334E+001 -4.0296191214709562E+000
       O  1.3517244182652812E+001 -1.2811703037325911E+001 -4.0821741864396959E+000
       H  2.1312791233194794E+001 -1.0246633467636796E+000  3.1517378764319742E-001
       H  2.0259887086218065E+001 -2.1226334744234747E+000 -4.1868331528276093E-001