 # Version information for this restart file 
 # current date 2025-03-29 21:57:10.742
 # current working dir /ccc/scratch/cont003/gen2309/sicilana/NPT/128_H2O_4_NaCl_10_wt_673K_1000bar/BATCH_10_MD_T_673_P_1000_steps_1000_dt_0.5_NH2O_128_NaCl_4_abc_17.19_17.19_17.19_wt_9.20
 # Program compiled at                                       2024-10-31 15:04:21
 # Program compiled on                                                 topaze131
 # Program compiled for                                                   x86_64
 # Source code revision number                                                  
 &GLOBAL
   PRINT_LEVEL LOW
   PROJECT_NAME "brines"
   RUN_TYPE MD
   FLUSH_SHOULD_FLUSH T
 &END GLOBAL
 &MOTION
   &MD
     ENSEMBLE NPT_I
     STEPS 1000
     TIMESTEP  4.9999999999999994E-001
     STEP_START_VAL 25999
     TIME_START_VAL  1.2999500000006883E+004
     ECONS_START_VAL -2.4590398713531335E+003
     TEMPERATURE  6.7300000000000011E+002
     &BAROSTAT
       PRESSURE  1.0000000000000000E+003
       TIMECON  9.9999999999999986E+001
       &VELOCITY
          -5.0482652543692208E-006
       &END VELOCITY
       &MASS
           4.2836593343398705E+007
       &END MASS
       &THERMOSTAT
         TYPE CSVR
         &CSVR
           TIMECON  4.8377686530095694E+001
           &THERMOSTAT_ENERGY
              -2.4436610643791624E-004
           &END THERMOSTAT_ENERGY
           &RNG_INIT
 Wiener process for Thermostat # 1        1 F T F   6.9350157326775330E-01        3911890750.0         995618628.0        3508684139.0        2100193396.0        2483193318.0        1875304807.0             12345.0             12345.0             12345.0             12345.0             12345.0             12345.0             12345.0             12345.0             12345.0             12345.0             12345.0             12345.0
           &END RNG_INIT
         &END CSVR
       &END THERMOSTAT
     &END BAROSTAT
     &THERMOSTAT
       TYPE CSVR
       &CSVR
         TIMECON  4.9999999999999994E+002
         &THERMOSTAT_ENERGY
            -8.0009944683866596E-001
         &END THERMOSTAT_ENERGY
         &RNG_INIT
 Wiener process for Thermostat # 1        1 F T F  -3.0131738237134092E-01        1452210043.0         579475563.0         753482521.0        3850133296.0        3591204687.0        1383235329.0             12345.0             12345.0             12345.0             12345.0             12345.0             12345.0             12345.0             12345.0             12345.0             12345.0             12345.0             12345.0
         &END RNG_INIT
       &END CSVR
     &END THERMOSTAT
     &AVERAGES T
       &RESTART_AVERAGES
         ITIMES_START 1
         AVECPU  2.2947801476146104E+001
         AVEHUGONIOT  0.0000000000000000E+000
         AVETEMP_BARO  3.0090230324975016E+002
         AVEPOT -2.4597141103103172E+003
         AVEKIN  1.2232366368631646E+000
         AVETEMP  6.5859696216103350E+002
         AVEKIN_QM  0.0000000000000000E+000
         AVETEMP_QM  0.0000000000000000E+000
         AVEVOL  3.8505380898546151E+004
         AVECELL_A  3.3692913357304995E+001
         AVECELL_B  3.3692913357304995E+001
         AVECELL_C  3.3692913357304995E+001
         AVEALPHA  9.0000000000000000E+001
         AVEBETA  9.0000000000000000E+001
         AVEGAMMA  9.0000000000000000E+001
         AVE_ECONS -1.2820216950341083E+002
         AVE_PRESS  3.8282112731114427E+002
         AVE_PXX  3.5781914681570760E+002
       &END RESTART_AVERAGES
     &END AVERAGES
   &END MD
   &PRINT
     &TRAJECTORY SILENT
       FILENAME =brines-1.xyz
       &EACH
         MD 1
       &END EACH
     &END TRAJECTORY
     &CELL SILENT
       FILENAME =brines-1.cell_xyz
       &EACH
         MD 1
       &END EACH
     &END CELL
     &VELOCITIES SILENT
       FILENAME =brines-1.vel
       &EACH
         MD 1
       &END EACH
     &END VELOCITIES
     &FORCES SILENT
       FILENAME =brines-1.force
       &EACH
         MD 1
       &END EACH
     &END FORCES
     &STRESS SILENT
       FILENAME =brines-1.stress
       &EACH
         MD 1
       &END EACH
     &END STRESS
     &RESTART SILENT
       FILENAME =brines-1.restart
       &EACH
         MD 1
       &END EACH
     &END RESTART
     &RESTART_HISTORY SILENT
       &EACH
         MD 50
       &END EACH
     &END RESTART_HISTORY
   &END PRINT
 &END MOTION
 &FORCE_EVAL
   METHOD QS
   STRESS_TENSOR ANALYTICAL
   &DFT
     BASIS_SET_FILE_NAME /ccc/work/cont003/gen2309/sicilana/DATA_CP2K/GTH_BASIS_SETS
     POTENTIAL_FILE_NAME /ccc/work/cont003/gen2309/sicilana/DATA_CP2K/GTH_POTENTIALS
     &SCF
       MAX_SCF 50
       EPS_SCF  9.9999999999999995E-008
       &OT T
         MINIMIZER DIIS
         PRECONDITIONER FULL_SINGLE_INVERSE
       &END OT
       &OUTER_SCF T
         EPS_SCF  9.9999999999999995E-008
         MAX_SCF 50
       &END OUTER_SCF
     &END SCF
     &QS
       EPS_DEFAULT  1.0000000000000000E-014
       EPSFIT  1.0000000000000000E-004
       EPSISO  9.9999999999999998E-013
       EPSRHO0  9.9999999999999995E-007
       QUADRATURE GC_LOG
       EXTRAPOLATION ASPC
       METHOD GAPW
     &END QS
     &MGRID
       NGRIDS 4
       CUTOFF  5.0000000000000000E+002
       REL_CUTOFF  6.0000000000000000E+001
     &END MGRID
     &XC
       DENSITY_CUTOFF  1.0000000000000000E-010
       GRADIENT_CUTOFF  1.0000000000000000E-010
       TAU_CUTOFF  1.0000000000000000E-010
       &XC_FUNCTIONAL NO_SHORTCUT
         &PBE T
           PARAMETRIZATION REVPBE
         &END PBE
       &END XC_FUNCTIONAL
       &VDW_POTENTIAL
         POTENTIAL_TYPE PAIR_POTENTIAL
         &PAIR_POTENTIAL
           TYPE DFTD3
           PARAMETER_FILE_NAME /ccc/work/cont003/gen2309/sicilana/DATA_CP2K/dftd3.dat
           REFERENCE_FUNCTIONAL "PBE"
           CALCULATE_C9_TERM T
           REFERENCE_C9_TERM T
           VERBOSE_OUTPUT T
           D3_EXCLUDE_KIND 3
         &END PAIR_POTENTIAL
       &END VDW_POTENTIAL
     &END XC
     &REAL_TIME_PROPAGATION
       INITIAL_WFN RT_RESTART
     &END REAL_TIME_PROPAGATION
     &PRINT
       &MO_CUBES SILENT
         WRITE_CUBE F
         NLUMO 10
         NHOMO 2
         &EACH
           MD 200
         &END EACH
       &END MO_CUBES
     &END PRINT
   &END DFT
   &SUBSYS
     &CELL
       A  1.9548013696669617E+001  0.0000000000000000E+000  0.0000000000000000E+000
       B  0.0000000000000000E+000  1.9548013696669617E+001  0.0000000000000000E+000
       C  0.0000000000000000E+000  0.0000000000000000E+000  1.9548013696669617E+001
       MULTIPLE_UNIT_CELL 1 1 1
     &END CELL
     &COORD
       H  1.0038711538175622E+001  2.3885226218744208E+001  9.5870908230422136E-001
       H  8.9799925821478848E+000  2.3943208368797318E+001  2.0423415540935190E+000
       O  9.8550541661467204E+000  2.3688797803830443E+001  1.8747659458152797E+000
       H  9.2633357961549834E+000 -8.3674523201345092E+000  2.7498743908062191E+000
       H  7.7422387624816507E+000 -8.9215163736964378E+000  3.0833639787839062E+000
       O  8.3229238555528671E+000 -8.1387362644841019E+000  2.8215211981586883E+000
       H -1.0322972889422502E+001  4.9065425797626439E+001  4.9549331436518010E+001
       H -1.0136723184627730E+001  4.9818074237604634E+001  4.8281710686698652E+001
       O -1.0350195710402440E+001  4.8901833184566399E+001  4.8620495861367480E+001
       H  9.3447736075917689E+000  2.3667590083010591E+001  2.6631894422866733E+001
       H  9.8450384785538638E+000  2.3687366066494842E+001  2.5215687514722305E+001
       O  9.0945410185052751E+000  2.3912323096513038E+001  2.5748664352345831E+001
       H -9.3747914724096599E+000  5.0425502794094399E+000  1.0149494935872516E+001
       H -9.3513190023194674E+000  6.3829489570424727E+000  9.3872019574357495E+000
       O -8.9050330955326871E+000  5.8583817262878890E+000  1.0019007426648569E+001
       H  3.4385728787095260E+001  2.9146082242757078E+001 -6.2938528351726664E+000
       H  3.3548122252198461E+001  2.9607050650648109E+001 -7.3866994528559760E+000
       O  3.4308592872501983E+001  2.9906210495521268E+001 -6.8639570803922618E+000
       H -4.7298730583392272E+000  5.1803536997642814E+000  8.5278445393025297E+000
       H -5.7065337366511288E+000  5.8464945995665714E+000  9.4456945301639834E+000
       O -5.4611909494040631E+000  4.9210098377124645E+000  9.0886927587020292E+000
       H  2.6417392160547980E+001  8.9894210910316086E-001  2.9227126484493637E-001
       H  2.6018680159699265E+001  2.2088153803593511E+000 -5.3364433859787119E-001
       O  2.5891035508373527E+001  1.2582746992953751E+000 -4.1539619679144435E-001
       H  2.2004053299748204E+001  1.3864954119203784E+001  1.5508803109333373E+001
       H  2.2526575614096807E+001  1.3905232610506607E+001  1.3968193297942969E+001
       O  2.2572672463970630E+001  1.4383802086421669E+001  1.4842622336897652E+001
       H  2.4868809221441147E+001 -1.2737865750259887E+000  2.3113201141243458E+001
       H  2.4937265857382730E+001 -1.5819770225119558E+000  2.1740471984043904E+001
       O  2.4472245252728975E+001 -9.2974168510733879E-001  2.2195263124059874E+001
       H  6.7077852338100410E+000 -5.1328562539573108E-001 -9.9849575325908262E+000
       H  5.7375194719165767E+000 -2.4379207923245935E-001 -8.8356921091597265E+000
       O  6.3439151998286567E+000  1.7235362872445339E-001 -9.4458691514089477E+000
       H  1.2375487243639508E+001  2.8720207765590837E+000  2.2596128867709115E+001
       H  1.1528605000337041E+001  4.0655093536139004E+000  2.2774431030658441E+001
       O  1.2369064211836845E+001  3.7020053867196481E+000  2.3108454197454819E+001
       H  1.7403450819427302E+001  1.4526707037780092E+001  5.6893001885898311E+000
       H  1.7958390228742299E+001  1.5645080598013744E+001  4.7737385524403351E+000
       O  1.7205323167198852E+001  1.5053836772408147E+001  4.9314279960048992E+000
       H  5.8587745274416871E+000 -1.0886174047794380E+001 -9.0300823471037261E-001
       H  6.8404161957018017E+000 -1.1461216689411680E+001 -1.8165166883350092E+000
       O  6.5053813950302963E+000 -1.0585512788842982E+001 -1.5743337271994839E+000
       H  3.1037185996810212E+001  3.5699862902689304E+001  3.4707258130691093E-001
       H  3.1687093751091457E+001  3.5675547707561556E+001 -1.1195094015925282E+000
       O  3.0858108813572173E+001  3.5940464747000256E+001 -6.2312089207762533E-001
       H  1.4307078852564691E+001  2.2395787223338726E+000 -1.0279570650927296E+001
       H  1.3291096701866486E+001  3.3505071922828127E+000 -1.0554689807843410E+001
       O  1.3332359167851463E+001  2.3448659926692121E+000 -1.0455087003084373E+001
       H  2.0891366730735221E+001  1.7976812159123954E+000  5.9365045874461329E+000
       H  2.0494265405945669E+001  5.8430018802552142E-001  6.8425008054483438E+000
       O  2.1243080094081787E+001  1.1504556273027788E+000  6.5824298508664709E+000
       H  9.8965425653408872E+000 -2.3838519178130357E+000  1.8204875025244554E+001
       H  8.9203201461402504E+000 -1.3250014599716424E+000  1.8720711852827648E+001
       O  9.0096310019064809E+000 -2.0542644453634384E+000  1.8102060525564720E+001
       H  4.6427908843936638E+000  1.8416041005402096E+001  7.6301636770282713E+000
       H  5.3914974475423394E+000  1.7274053582596586E+001  7.2888416793329780E+000
       O  4.5260460653832277E+000  1.7477995346169880E+001  7.6922168456257189E+000
       H  2.1405583946147921E+001  2.6311120396669704E+001  4.1293631271627795E+000
       H  2.0943342494927894E+001  2.7197168548020841E+001  2.8930318959395964E+000
       O  2.1244024346173639E+001  2.6375131289855009E+001  3.1651480560914429E+000
       H  1.7261556003028414E+001  1.0450599898428607E+001  2.0655539178511219E+001
       H  1.7397925039533678E+001  1.2015710770125626E+001  2.0697975210699656E+001
       O  1.7484617234250109E+001  1.1199928660644018E+001  2.1225618036244462E+001
       H  9.7924784299857244E+000 -1.3301417802344982E+001  1.7953233790810106E+001
       H  1.1181182420753879E+001 -1.2596656270748978E+001  1.8029467608358075E+001
       O  1.0233435550068176E+001 -1.2472068669614597E+001  1.7956323175353599E+001
       H  2.9429505601469781E+001  1.3643579411783930E+001  2.4495468380297972E+001
       H  3.0484406350868891E+001  1.4336363028309741E+001  2.3602484321696959E+001
       O  2.9611034146732340E+001  1.4511284992328070E+001  2.4147752877067369E+001
       H -1.6984126039635651E+001  7.4477692484887417E+000  1.4578859318568213E+001
       H -1.7647275836344562E+001  8.7873119027961302E+000  1.4425003312805048E+001
       O -1.7164451806451801E+001  8.2821583007166470E+000  1.5080331261356143E+001
       H  1.5246880774723726E+000  6.0472172853846287E+000  7.6345872507678374E+000
       H  1.2900353625245438E+000  5.2953634393785940E+000  6.4344878705207114E+000
       O  1.5005838098493962E+000  6.2168122966108097E+000  6.6849295803587570E+000
       H -8.9772358913185641E+000 -1.6497952366784276E+001  1.7051466694014024E+001
       H -8.0063212555598309E+000 -1.5464319720553359E+001  1.7548467810540128E+001
       O -8.6578263611365252E+000 -1.6142558640572627E+001  1.7895340084304504E+001
       H  2.7717911478470128E+001  1.0244613906697987E+001 -7.2711840133683181E-001
       H  2.8482726566588667E+001  1.1522946088032896E+001 -1.9648097876868859E-001
       O  2.8651766391139788E+001  1.0682430842445488E+001 -6.5794709857085387E-001
       H  1.2822564320398818E+001 -2.8952297611341464E+000  2.5951438518387686E+001
       H  1.3527692973525987E+001 -3.8673453906561623E+000  2.6850852837640762E+001
       O  1.2672585897635951E+001 -3.5192737280507287E+000  2.6743068957356822E+001
       H -6.6598285136917266E+000  8.7451018967154788E+000 -2.9312598435032409E+000
       H -7.0779535382626326E+000  9.3399782145896566E+000 -1.6402035795053158E+000
       O -6.2647074623127086E+000  9.0926940969535757E+000 -2.1362667415960734E+000
       H  6.0882441166824854E+000  5.4445238632678432E+000  1.2865402517260793E+000
       H  7.1926111353085629E+000  5.7664948399133520E+000  3.9359658583103740E-001
       O  6.5075704948361901E+000  5.0938633513700742E+000  4.3856545442683587E-001
       H  1.9057807246026719E+000 -1.7583837661508588E+000  3.5471140391640290E+000
       H  1.1088191902620603E+000 -6.3222949560983832E-001  2.7317086012586578E+000
       O  1.3092350430657513E+000 -1.5309621290805564E+000  2.8319521482457781E+000
       H -3.5339235689725403E+000  2.1823796042655562E+001 -5.0780797942676976E+000
       H -2.5448471214917401E+000  2.2775655383524647E+001 -4.4101777356135523E+000
       O -3.4094743928788982E+000  2.2688701762258486E+001 -4.6178282332521441E+000
       H  2.3883822284415690E+001  2.7107823811838813E+001  1.1251611657664357E+001
       H  2.2719004190727322E+001  2.6244156018125075E+001  1.1278919161319555E+001
       O  2.3280898136631315E+001  2.6784359555788939E+001  1.1840309092343881E+001
       H  2.5650846706074666E+000 -2.1490175417467409E+001 -6.9024578080072487E+000
       H  1.9433292156402584E+000 -2.0056184504191780E+001 -7.2997733468037698E+000
       O  2.3176048679984977E+000 -2.0590437718863498E+001 -6.4981793545910547E+000
       H  8.0253489713791613E+000  3.9736615286495911E+000  1.1005971413595448E+001
       H  9.0475422140342250E+000  3.0161727277453587E+000  1.1765792706455423E+001
       O  8.9674560704911705E+000  3.8643491684878408E+000  1.1211466273222785E+001
       H  1.1953873223618816E+001  2.0568653408065249E+001 -1.8367093373570789E+001
       H  1.1934122638179522E+001  2.1128840068793352E+001 -1.9586942074780811E+001
       O  1.2642136910785021E+001  2.0669354155011195E+001 -1.9014105609913425E+001
       H  1.4550199331466464E+001 -8.5555932427126198E+000 -1.6958288023787667E+001
       H  1.5530640217953648E+001 -7.4999906278938662E+000 -1.7378942152486339E+001
       O  1.4563841685800634E+001 -7.7873592546058239E+000 -1.7542832273402347E+001
       H  1.4267719860888997E+001 -2.9283336581211103E+000  3.0275932621914002E+001
       H  1.3347103370841115E+001 -2.8383995491880745E+000  2.9071653337789815E+001
       O  1.4199722707783270E+001 -3.1305391505054283E+000  2.9338225585568797E+001
       H  2.3064309288680807E+001  5.8826300988876561E+000  1.6687595195104372E+001
       H  2.2379730418188053E+001  5.4408021602753509E+000  1.8099989346324207E+001
       O  2.2302884080270996E+001  5.4473973423775774E+000  1.7101010590772010E+001
       H  1.6009734129873141E+001  2.2717819562136732E+001  1.2629396896343930E+001
       H  1.5360665793093021E+001  2.2922435095966676E+001  1.1236769406986749E+001
       O  1.5921217510818368E+001  2.2316731304650020E+001  1.1730780621524532E+001
       H  2.6469592915861915E+000  3.1848513905842291E+000  3.2231696872701372E+000
       H  3.6518525629491880E+000  2.3461030599024184E+000  4.0865564928610807E+000
       O  3.3347955780471881E+000  3.2667291934856180E+000  3.9256505507165431E+000
       H  1.8097265235694035E+001  2.3296021492018244E+001 -7.4584304517149844E+000
       H  1.9089317899364904E+001  2.2821913925908021E+001 -6.3490127548744351E+000
       O  1.9057518464147400E+001  2.3077221548050268E+001 -7.3171992378713711E+000
       H  2.7899354286853040E+000  3.6037801973540716E+001  1.5474417606519712E+001
       H  3.9843595989837972E+000  3.5562374148390589E+001  1.6206394411138241E+001
       O  3.3402058684088898E+000  3.6394746274168547E+001  1.6126279612769018E+001
       H  1.3421728612408309E+001  1.3139727036865192E+000  1.1616840679431231E+001
       H  1.2352558171656385E+001  2.2303529697271021E+000  1.1430754720138006E+001
       O  1.2600462018377241E+001  1.5063271173401422E+000  1.2020940004557959E+001
       H  1.3509643277355675E+001  1.7753119635346732E+001 -1.8544348136456353E+001
       H  1.3548439834443226E+001  1.7439399557357383E+001 -1.7079360737339975E+001
       O  1.3486378863993560E+001  1.7000245390445475E+001 -1.7923893991017099E+001
       H -9.5016493699633529E+000  1.5499265775734521E+001  6.7708484247505165E+000
       H -8.6717600143009239E+000  1.5774911291880482E+001  8.0290065040059186E+000
       O -9.4986518774241198E+000  1.5375872570785537E+001  7.6890675827218695E+000
       H  1.0162827792906398E+001  3.7141802785820801E+001  1.4815627652383311E+001
       H  1.0239010874895627E+001  3.6502591395676198E+001  1.6265605487839274E+001
       O  1.0677277199505662E+001  3.6610188014865784E+001  1.5416343207915030E+001
       H  5.2994546332388408E+000  5.5434674271578634E+000  1.7376124248433452E+001
       H  6.0278613488981563E+000  5.2174231387287753E+000  1.6172538939596205E+001
       O  5.5580486516797150E+000  5.9973703769207702E+000  1.6563192030747707E+001
       H -1.4270456751222629E+000  2.1162061873737454E+001 -1.1806796766045331E+000
       H -1.4978495410954498E+000  1.9615278459249716E+001 -1.1212860975358878E+000
       O -1.5050524860048826E+000  2.0387240600504544E+001 -5.2215111324399277E-001
       H -6.5261175187451839E+000  1.9291503407180045E+001  2.4034994178174198E+001
       H -4.9675268145704559E+000  1.9184927136188779E+001  2.4042950077900731E+001
       O -5.8451358959261182E+000  1.8797093679009613E+001  2.3634284302929920E+001
       H  1.9842729554150797E+001 -3.8106699594013556E+000  6.3826824774897144E+000
       H  1.9145356089754976E+001 -3.0257854737006951E+000  7.5388262377279895E+000
       O  1.9246705251575030E+001 -3.0463246094913128E+000  6.5736747652779624E+000
       H -3.2859311861277341E+001  5.2267510291315915E+000  2.3354480865387565E+001
       H -3.4140527146942901E+001  4.5686522222991544E+000  2.2767615030398083E+001
       O -3.3544793701435040E+001  5.3435261113179724E+000  2.2722326557334849E+001
       H  9.7870678830497351E+000  9.4777243427709017E+000  1.3321839700740364E+001
       H  1.0401360638528637E+001  1.0947361864908810E+001  1.3118540405683088E+001
       O  1.0310108910905660E+001  1.0074759135567614E+001  1.2693517585947367E+001
       H  1.8122808854769197E+001 -1.7368463442499561E+001  2.3718636372952378E+001
       H  1.7527409732884127E+001 -1.7076276771414062E+001  2.5114559548776079E+001
       O  1.8352168149637958E+001 -1.7234035378076783E+001  2.4605754048469791E+001
       H -1.1558150987197382E+000  1.6666273521692752E+001 -5.0900704031546216E+000
       H -2.2461194087001149E-001  1.7704174902649079E+001 -5.6263192461822884E+000
       O -7.9084281495579600E-001  1.6980411791790928E+001 -5.8997069073986399E+000
       H  1.8627539103717776E+001  1.0746622933111235E+001  1.6958016872893992E+001
       H  1.9934872270282529E+001  1.0237318564047275E+001  1.6975092921081615E+001
       O  1.9290375955268992E+001  1.0588047623897838E+001  1.6359438974897817E+001
       H  2.9667597176901688E+000  9.7183220474424896E+000  2.6019885360809422E+001
       H  3.3491311694293464E+000  8.5944511848127121E+000  2.7080890746327313E+001
       O  2.5593192028008200E+000  9.0268135496121022E+000  2.6636485678188308E+001
       H  2.2940372144379571E+000 -7.2620574448756061E+000 -2.5331481373059672E+000
       H  2.9161508470547841E+000 -6.0963791024353249E+000 -1.5871916799816836E+000
       O  3.0254935772206699E+000 -7.0772181331932291E+000 -1.9087321561673842E+000
       H  3.2126775028867276E+000  1.0189433918219892E+001  1.8376713885400541E+001
       H  3.2754713918801133E+000  9.5838261694518234E+000  1.7156510414077076E+001
       O  2.6315200390347799E+000  9.6454255687199488E+000  1.7957858626556295E+001
       H  7.5340765916232781E+000  2.4983925978784768E+001  3.3598970254918584E+001
       H  6.1873849484537367E+000  2.4407177543037804E+001  3.4051012171977547E+001
       O  7.1945343967401225E+000  2.4217186999173197E+001  3.4123921957641052E+001
       H  8.3850704378520042E+000  3.3902541469219145E+001 -2.3669212303184364E+000
       H  9.8925553603359759E+000  3.3838629520358964E+001 -2.0514902827522730E+000
       O  9.0996749771485668E+000  3.3253046681665325E+001 -2.2794831573277481E+000
       H  2.7723329844096428E-001  1.0978007006380412E+001  1.1833322512727387E+001
       H -8.8235280412207051E-001  1.1667888736549671E+001  1.2707438264613804E+001
       O -3.3430285268773396E-001  1.1765270548725637E+001  1.1910055496486208E+001
       H  1.5508190796588286E+001  1.2320243290728619E+001 -1.9627874700627046E+001
       H  1.6626453711897309E+001  1.3029995076478050E+001 -2.0552629582826359E+001
       O  1.6080838505555764E+001  1.3124142629401804E+001 -1.9713233588515369E+001
       H  1.2794455088887322E+001 -8.6449979109717190E-001  1.7381506712128012E+001
       H  1.2538522485117703E+001 -1.8435291816267003E+000  1.6143675678198040E+001
       O  1.3237848303922119E+001 -1.3831083777814959E+000  1.6689447487555103E+001
       H  1.5731382072425845E+001  8.4290192038884442E+000  2.1229639786979217E+001
       H  1.5523369466873728E+001  7.0996087492479365E+000  2.2055846288580213E+001
       O  1.5700782018840714E+001  7.3936497909039511E+000  2.1173425596562016E+001
       H  2.9196294018234290E+001 -1.3685323518299533E+000  2.3174989549614047E+001
       H  3.0534330652710711E+001 -2.1852756091039502E+000  2.3130931942547235E+001
       O  3.0140205899207182E+001 -1.3383512169948435E+000  2.2789782875546766E+001
       H  2.2688684998489858E+001  1.5637649554197731E+001  1.8524289339695219E+001
       H  2.1310164033324053E+001  1.5714771595342818E+001  1.8070708057992281E+001
       O  2.1878438358513510E+001  1.5136629397862146E+001  1.8639334689850639E+001
       H  1.0644277355693159E+001  4.6808615768848476E+000 -6.2836127726536546E+000
       H  1.0856491859602651E+001  4.5478941262198802E+000 -4.7082619292879819E+000
       O  1.0659682326061613E+001  5.2118424931701153E+000 -5.4668523558534154E+000
       H -2.9231208500262098E+000  1.2271371179349897E+001 -6.1278677951806797E+000
       H -2.1627333541788625E+000  1.3677041829417124E+001 -5.9325356933657103E+000
       O -2.0333275641610205E+000  1.2645608583228633E+001 -5.8775391631830125E+000
       H  8.1491793834818171E+000  7.7446430023278570E+000  1.3119148776793409E+001
       H  8.8262513604314439E+000  6.5447696161350253E+000  1.2576090219978967E+001
       O  7.9401496929826987E+000  6.9069820789489800E+000  1.2762784022223643E+001
       H -1.5730890587381529E+001 -4.6382297564045976E+000  4.7238012341477393E+000
       H -1.6038578514886641E+001 -3.2633924184214078E+000  4.2902195079285095E+000
       O -1.6475791061708637E+001 -4.0084286308489112E+000  4.6322912110614149E+000
       H -3.8512063577318972E-001  7.3933308120909240E+000 -8.1066032787082598E+000
       H -4.2732754099340814E-001  8.6500541580020798E+000 -9.0061975683786599E+000
       O -1.9008138602421767E-001  8.3291940252627974E+000 -8.1569980208249859E+000
       H  1.3820638125411500E+001  8.8532387575216323E+000  8.2563091665870374E+000
       H  1.3854147454471786E+001  1.0297288925822931E+001  8.4377099293482605E+000
       O  1.4320235431413678E+001  9.6253503167297030E+000  7.9235362025158675E+000
       H  2.9572089784517921E+000  1.1504321064849693E+001  1.3960708707639793E+000
       H  2.4151863321874019E+000  1.1717207718310297E+001  3.0716408788100527E+000
       O  3.1819557105748215E+000  1.1502393629850989E+001  2.4208977544380081E+000
       H  1.2653740867577485E+001  1.5904764992947573E+001 -7.0860837109036465E+000
       H  1.3662328230694175E+001  1.4869719447795978E+001 -7.0629597007134404E+000
       O  1.3654657020420377E+001  1.5828033481829790E+001 -6.9658858824032395E+000
       H  1.5888858487918370E+001  1.9730305655093954E+001  1.3769864560816700E+001
       H  1.4282354173456012E+001  1.9671456767848365E+001  1.3947479617067190E+001
       O  1.5089819736026364E+001  2.0272468967018039E+001  1.3806454809267565E+001
       H  5.5621397046819681E+000 -5.5203886029593283E+000 -1.2946551312876858E+001
       H  4.7531710142289523E+000 -4.8073551484950494E+000 -1.1883202115585892E+001
       O  5.3983200415786721E+000 -4.6657272931196383E+000 -1.2576458564513930E+001
       H  6.6789216036597701E+000  1.1412519632929843E+001  6.0401373751205556E+000
       H  6.3011616858373181E+000  1.2160250976676361E+001  4.7306715000240365E+000
       O  6.6624154461518676E+000  1.2278823361902504E+001  5.6228539443065300E+000
       H  1.1899541672644014E+001  7.8569114989036457E+000  9.8457153006908431E+000
       H  1.1898725083406219E+001  9.2516569219884630E+000  1.0444293689877071E+001
       O  1.2435223959241128E+001  8.6564862630376211E+000  9.8757133470423746E+000
       H  6.8220111231853631E-001  1.3213488855353113E+000 -9.2622399608850170E+000
       H  1.6957444463688426E-001  1.9587686537023932E+000 -8.0217913857607250E+000
       O  4.7162324830542651E-001  9.9492237559049690E-001 -8.3092669394376930E+000
       H  1.8842571694836669E+000  1.4048148562107293E+001  6.3925144079105909E+000
       H  2.2037395478633841E+000  1.3660131181881656E+001  7.8878912770093086E+000
       O  1.6237674479042872E+000  1.4254593099716324E+001  7.3268653442844816E+000
       H -6.2463411145809511E+000 -6.3445379864913347E+000  1.8186149387259942E+001
       H -7.1975963929698592E+000 -6.9567601156641938E+000  1.7290369525965129E+001
       O -6.8959123728770404E+000 -6.0834460079816779E+000  1.7521011472484602E+001
       H  1.9639035823731529E+001  2.5827824126293515E+000  1.5222410728069454E+001
       H  1.9048314654381006E+001  1.2651818372920827E+000  1.5654546686437914E+001
       O  1.8989212386089278E+001  1.8995781768031197E+000  1.4899128509184575E+001
       H  1.7139879753978612E+001 -4.0076370050258427E+000  2.9110938329470184E+001
       H  1.8061615644206174E+001 -5.0732427753565608E+000  2.9819598067560573E+001
       O  1.7321762469408011E+001 -4.4753389338627265E+000  2.9905717397287074E+001
       H  1.9529414299989298E+001  1.0366666774825040E+000  2.0377261038742226E+001
       H  1.9984584557641107E+001  2.3295500171725334E+000  2.1041091216665276E+001
       O  2.0162542299528315E+001  1.3233187646857500E+000  2.1025384430753562E+001
       H  8.8815593386224130E+000  1.6270207613786183E+000 -5.1331771755160691E+000
       H  1.0364692299943194E+001  1.6073092715418602E+000 -4.9210185760402245E+000
       O  9.6550031793654565E+000  2.1764527200421200E+000 -5.1667356243843834E+000
       H  1.0818252786467838E+001 -5.9273270567235903E+000 -5.0600500809672351E+000
       H  9.4721287342060716E+000 -6.2166175259058187E+000 -4.2657613681107271E+000
       O  1.0057813295090549E+001 -6.6379408742170813E+000 -4.9616187548456061E+000
       H  3.5813855890498722E+001  1.5715594413577755E+001  1.3838726303253923E+001
       H  3.5792427788185542E+001  1.5014467627951298E+001  1.5289480471135263E+001
       O  3.6191475094858852E+001  1.5021193636711175E+001  1.4408792892637933E+001
       H  2.0804306224380742E+001  9.3284436126971784E+000  8.4776804479062040E+000
       H  1.9571797894723151E+001  8.5437003882350417E+000  7.8985851897316435E+000
       O  1.9791830840433448E+001  9.1967044197259984E+000  8.5507377758681127E+000
       H  8.0451847526915046E+000 -6.9951542579291139E+000  8.1297316638841490E+000
       H  9.5752191716488806E+000 -6.7304345234543552E+000  8.1789018230075996E+000
       O  8.9200001360006222E+000 -7.4308840528615923E+000  8.0769287727136359E+000
       H -4.8130173037114634E+000  5.2476292648048357E+000  4.4496141484128060E+000
       H -4.7448924973369584E+000  6.6976273477700454E+000  5.0465656390382678E+000
       O -4.3908785117606897E+000  6.0926543234471806E+000  4.3432719458071798E+000
       H  1.4007604173539029E+001 -1.4398970477305557E+001 -3.5899318699366551E+000
       H  1.3535345977063219E+001 -1.3371566733349368E+001 -2.3193095270201445E+000
       O  1.3393696741315852E+001 -1.3764312549802934E+001 -3.2396050106464336E+000
       H  2.2085825131481847E+001 -2.3076500745347559E+000  2.5979562473820111E-001
       H  2.2651506935960942E+001 -1.2924254179008516E+000  1.1872672988233870E+000