 # Version information for this restart file 
 # current date 2025-03-29 20:05:59.082
 # current working dir /ccc/scratch/cont003/gen2309/sicilana/NPT/128_H2O_4_NaCl_10_wt_673K_1000bar/BATCH_10_MD_T_673_P_1000_steps_1000_dt_0.5_NH2O_128_NaCl_4_abc_17.19_17.19_17.19_wt_9.20
 # Program compiled at                                       2024-10-31 15:04:21
 # Program compiled on                                                 topaze131
 # Program compiled for                                                   x86_64
 # Source code revision number                                                  
 &GLOBAL
   PRINT_LEVEL LOW
   PROJECT_NAME "brines"
   RUN_TYPE MD
   FLUSH_SHOULD_FLUSH T
 &END GLOBAL
 &MOTION
   &MD
     ENSEMBLE NPT_I
     STEPS 1000
     TIMESTEP  4.9999999999999994E-001
     STEP_START_VAL 25750
     TIME_START_VAL  1.2875000000007074E+004
     ECONS_START_VAL -2.4590398713531335E+003
     TEMPERATURE  6.7300000000000011E+002
     &BAROSTAT
       PRESSURE  1.0000000000000000E+003
       TIMECON  9.9999999999999986E+001
       &VELOCITY
           4.7597435384644431E-006
       &END VELOCITY
       &MASS
           4.2836593343398705E+007
       &END MASS
       &THERMOSTAT
         TYPE CSVR
         &CSVR
           TIMECON  4.8377686530095694E+001
           &THERMOSTAT_ENERGY
              -1.2148392906977769E-003
           &END THERMOSTAT_ENERGY
           &RNG_INIT
 Wiener process for Thermostat # 1        1 F T F  -4.5433757498508986E-01        3338133022.0        1779995808.0        2881957128.0        1504796272.0         425423892.0        2769952281.0             12345.0             12345.0             12345.0             12345.0             12345.0             12345.0             12345.0             12345.0             12345.0             12345.0             12345.0             12345.0
           &END RNG_INIT
         &END CSVR
       &END THERMOSTAT
     &END BAROSTAT
     &THERMOSTAT
       TYPE CSVR
       &CSVR
         TIMECON  4.9999999999999994E+002
         &THERMOSTAT_ENERGY
            -8.0122324041289361E-001
         &END THERMOSTAT_ENERGY
         &RNG_INIT
 Wiener process for Thermostat # 1        1 F T F  -6.8656394622024675E-01        3946486102.0        2882522911.0        1131960604.0        2173446164.0        2603838060.0        4107151339.0             12345.0             12345.0             12345.0             12345.0             12345.0             12345.0             12345.0             12345.0             12345.0             12345.0             12345.0             12345.0
         &END RNG_INIT
       &END CSVR
     &END THERMOSTAT
     &AVERAGES T
       &RESTART_AVERAGES
         ITIMES_START 1
         AVECPU  2.2910616187036705E+001
         AVEHUGONIOT  0.0000000000000000E+000
         AVETEMP_BARO  3.0058013793573122E+002
         AVEPOT -2.4597116480118057E+003
         AVEKIN  1.2242989702584328E+000
         AVETEMP  6.5916892798174297E+002
         AVEKIN_QM  0.0000000000000000E+000
         AVETEMP_QM  0.0000000000000000E+000
         AVEVOL  3.8397330586359582E+004
         AVECELL_A  3.3663258464247534E+001
         AVECELL_B  3.3663258464247534E+001
         AVECELL_C  3.3663258464247534E+001
         AVEALPHA  9.0000000000000000E+001
         AVEBETA  9.0000000000000000E+001
         AVEGAMMA  9.0000000000000000E+001
         AVE_ECONS -1.2593670648471794E+002
         AVE_PRESS  3.7781539506916454E+002
         AVE_PXX  3.4921875702337763E+002
       &END RESTART_AVERAGES
     &END AVERAGES
   &END MD
   &PRINT
     &TRAJECTORY SILENT
       FILENAME =brines-1.xyz
       &EACH
         MD 1
       &END EACH
     &END TRAJECTORY
     &CELL SILENT
       FILENAME =brines-1.cell_xyz
       &EACH
         MD 1
       &END EACH
     &END CELL
     &VELOCITIES SILENT
       FILENAME =brines-1.vel
       &EACH
         MD 1
       &END EACH
     &END VELOCITIES
     &FORCES SILENT
       FILENAME =brines-1.force
       &EACH
         MD 1
       &END EACH
     &END FORCES
     &STRESS SILENT
       FILENAME =brines-1.stress
       &EACH
         MD 1
       &END EACH
     &END STRESS
     &RESTART SILENT
       FILENAME =brines-1.restart
       &EACH
         MD 1
       &END EACH
     &END RESTART
     &RESTART_HISTORY SILENT
       &EACH
         MD 50
       &END EACH
     &END RESTART_HISTORY
   &END PRINT
 &END MOTION
 &FORCE_EVAL
   METHOD QS
   STRESS_TENSOR ANALYTICAL
   &DFT
     BASIS_SET_FILE_NAME /ccc/work/cont003/gen2309/sicilana/DATA_CP2K/GTH_BASIS_SETS
     POTENTIAL_FILE_NAME /ccc/work/cont003/gen2309/sicilana/DATA_CP2K/GTH_POTENTIALS
     &SCF
       MAX_SCF 50
       EPS_SCF  9.9999999999999995E-008
       &OT T
         MINIMIZER DIIS
         PRECONDITIONER FULL_SINGLE_INVERSE
       &END OT
       &OUTER_SCF T
         EPS_SCF  9.9999999999999995E-008
         MAX_SCF 50
       &END OUTER_SCF
     &END SCF
     &QS
       EPS_DEFAULT  1.0000000000000000E-014
       EPSFIT  1.0000000000000000E-004
       EPSISO  9.9999999999999998E-013
       EPSRHO0  9.9999999999999995E-007
       QUADRATURE GC_LOG
       EXTRAPOLATION ASPC
       METHOD GAPW
     &END QS
     &MGRID
       NGRIDS 4
       CUTOFF  5.0000000000000000E+002
       REL_CUTOFF  6.0000000000000000E+001
     &END MGRID
     &XC
       DENSITY_CUTOFF  1.0000000000000000E-010
       GRADIENT_CUTOFF  1.0000000000000000E-010
       TAU_CUTOFF  1.0000000000000000E-010
       &XC_FUNCTIONAL NO_SHORTCUT
         &PBE T
           PARAMETRIZATION REVPBE
         &END PBE
       &END XC_FUNCTIONAL
       &VDW_POTENTIAL
         POTENTIAL_TYPE PAIR_POTENTIAL
         &PAIR_POTENTIAL
           TYPE DFTD3
           PARAMETER_FILE_NAME /ccc/work/cont003/gen2309/sicilana/DATA_CP2K/dftd3.dat
           REFERENCE_FUNCTIONAL "PBE"
           CALCULATE_C9_TERM T
           REFERENCE_C9_TERM T
           VERBOSE_OUTPUT T
           D3_EXCLUDE_KIND 3
         &END PAIR_POTENTIAL
       &END VDW_POTENTIAL
     &END XC
     &REAL_TIME_PROPAGATION
       INITIAL_WFN RT_RESTART
     &END REAL_TIME_PROPAGATION
     &PRINT
       &MO_CUBES SILENT
         WRITE_CUBE F
         NLUMO 10
         NHOMO 2
         &EACH
           MD 200
         &END EACH
       &END MO_CUBES
     &END PRINT
   &END DFT
   &SUBSYS
     &CELL
       A  1.9206678512217294E+001  0.0000000000000000E+000  0.0000000000000000E+000
       B  0.0000000000000000E+000  1.9206678512217294E+001  0.0000000000000000E+000
       C  0.0000000000000000E+000  0.0000000000000000E+000  1.9206678512217294E+001
       MULTIPLE_UNIT_CELL 1 1 1
     &END CELL
     &COORD
       H  9.7849711834770883E+000  2.3098970226691435E+001  5.9747140838357904E-001
       H  8.5197101746779857E+000  2.2733260040610116E+001  1.5318060985508226E+000
       O  9.4539388349117583E+000  2.3141574176613233E+001  1.5638965620877110E+000
       H  7.7767894655368854E+000 -7.3492374217854879E+000  2.1692732576109837E+000
       H  9.1436869664566451E+000 -6.8485146729281920E+000  1.6487338522656350E+000
       O  8.6878474989680452E+000 -7.5790040689786720E+000  2.0819543093941646E+000
       H -1.1270402081402214E+001  4.8241502212620688E+001  4.8289838478279044E+001
       H -1.0251319859453206E+001  4.9050874149366457E+001  4.7666478514214241E+001
       O -1.0579562840772800E+001  4.8123205778372984E+001  4.7677645213375094E+001
       H  8.1148543622798641E+000  2.3119909360128101E+001  2.6293067573302608E+001
       H  9.2865142078196126E+000  2.4142000893971307E+001  2.5906848426784990E+001
       O  9.0539843171206851E+000  2.3380861467209780E+001  2.6493296533478048E+001
       H -8.0240528286370054E+000  5.7051204383839851E+000  7.6526466908816175E+000
       H -7.1193038687493200E+000  5.4522499372536926E+000  9.0211437010140081E+000
       O -7.7392022141483725E+000  6.0722992189553464E+000  8.5102882624922156E+000
       H  3.4072556439819948E+001  2.6943900573233098E+001 -7.1076896218733445E+000
       H  3.2795463975908334E+001  2.7719959583356275E+001 -6.7204935782609239E+000
       O  3.3782485855520356E+001  2.7837216145768608E+001 -6.7470692437076636E+000
       H -4.5171543599622241E+000  5.3695285863867879E+000  8.4759931881668926E+000
       H -5.1109547643288167E+000  4.6706096331125968E+000  9.6992753642393232E+000
       O -5.2042888342626155E+000  4.6925983897599099E+000  8.6694207212079579E+000
       H  2.6248431011339200E+001  2.8997008276044292E+000 -3.8905666012965440E-001
       H  2.5493512389560301E+001  3.6606963902818737E+000  5.4049489075207890E-001
       O  2.6157503510235514E+001  2.9524724494244285E+000  5.7906077759438090E-001
       H  2.1945419337305317E+001  1.3415786007080920E+001  1.4737501798904031E+001
       H  2.2468467168887667E+001  1.3631860759105496E+001  1.3350627663106943E+001
       O  2.2435527872137421E+001  1.4137690174174887E+001  1.4260603565689873E+001
       H  2.3351936186257703E+001 -6.3482210104725767E-001  2.1666229326089134E+001
       H  2.4464232602395494E+001 -1.3102013984710104E+000  2.1132241260628888E+001
       O  2.3850975552191425E+001 -6.1805462044365200E-001  2.0900336470999182E+001
       H  8.1775821693464685E+000  4.7020808562987082E-001 -8.5661026421972508E+000
       H  7.5436040378754514E+000  2.9678602438802765E-001 -7.1167078512136239E+000
       O  7.8423034528532467E+000 -2.6581583059816827E-001 -7.9669345518815406E+000
       H  1.2213970950291635E+001  2.6371697924794963E+000  2.1349696322950482E+001
       H  1.1309900622351952E+001  3.7040551230556753E+000  2.1764733356354235E+001
       O  1.2275359000452085E+001  3.4411721683426819E+000  2.1869879215128073E+001
       H  1.6626365037092150E+001  1.5525521834578621E+001  4.2335615725218156E+000
       H  1.7088717339638560E+001  1.6351793510917130E+001  5.4775619042183301E+000
       O  1.6624273424073706E+001  1.5511405216666153E+001  5.1915384070682355E+000
       H  5.7609517208636420E+000 -1.0436425429536545E+001 -2.1362872823081119E-001
       H  6.1517107392578740E+000 -1.1420978665235452E+001 -1.3421820366325166E+000
       O  6.0964433509027209E+000 -1.0445004901744950E+001 -1.1570611016549328E+000
       H  3.1367924686105987E+001  3.4529658314442450E+001  2.8389327064344722E-001
       H  3.1283921412947180E+001  3.3366861059938543E+001 -7.4948834235538653E-001
       O  3.0921834620897570E+001  3.4229275979312270E+001 -4.6978561143457737E-001
       H  1.3843489222905564E+001  1.6132891315871725E+000 -1.0365937885901836E+001
       H  1.3244496373360967E+001  2.9131309166584254E+000 -1.0126411949396060E+001
       O  1.3123443749724968E+001  1.9387230100990165E+000 -9.9259995865995556E+000
       H  2.0017094150129232E+001  1.3269344128831599E+000  6.2685631661944816E+000
       H  2.1394809101530562E+001  1.2149790071083428E+000  6.9213945794578882E+000
       O  2.0956696178017808E+001  1.2420488707595385E+000  6.0403357456634819E+000
       H  9.3604517438164727E+000 -2.5182832898352285E+000  1.7923038285258407E+001
       H  7.9742500635053739E+000 -2.2725555707835223E+000  1.8830181521714817E+001
       O  8.3372789954297968E+000 -2.4430636396019376E+000  1.7924453010139640E+001
       H  4.3716317487658705E+000  1.7532074433730497E+001  9.1509400828094396E+000
       H  5.5337740608113464E+000  1.7177793739053477E+001  8.3631949480759005E+000
       O  4.5790098351243520E+000  1.7511000695640142E+001  8.2097516951717839E+000
       H  2.0571290206959048E+001  2.6262550601956708E+001  4.6066042516094656E+000
       H  2.1916973012047780E+001  2.5643339513740781E+001  3.9274208549896827E+000
       O  2.1212708888744729E+001  2.6253344248448713E+001  3.8248431635745672E+000
       H  1.6353134425449664E+001  9.3848341622265554E+000  2.1302001349152608E+001
       H  1.7332865789073313E+001  1.0329515709967994E+001  2.0475027791024118E+001
       O  1.7045469648069975E+001  1.0105620486228768E+001  2.1362888724844712E+001
       H  1.0413648715435174E+001 -1.2799522679215819E+001  1.7668369391098700E+001
       H  8.8374323851569674E+000 -1.2496871906907257E+001  1.7959915577136904E+001
       O  9.4753293169824104E+000 -1.3185074982450939E+001  1.7656423307863211E+001
       H  2.9053905944917688E+001  1.2464067296499591E+001  2.4182719577159137E+001
       H  2.9687168995001898E+001  1.3515211323835869E+001  2.3479160532318939E+001
       O  2.9352316123262263E+001  1.3311349076684939E+001  2.4364051791421456E+001
       H -1.6483345897595221E+001  8.7685223609895679E+000  1.3967381877055741E+001
       H -1.5668614262999107E+001  8.2548509235774414E+000  1.5135944644407282E+001
       O -1.6245346741046841E+001  7.9796326379079492E+000  1.4447776331652094E+001
       H  1.1787219863995253E+000  5.1075343999276992E+000  6.2643885768559162E+000
       H  1.6695818869288821E+000  6.6120490254307152E+000  6.4809946216176773E+000
       O  1.9714650475690645E+000  5.6475591104561174E+000  6.5405073620498948E+000
       H -8.9604990843701753E+000 -1.6313030561478389E+001  1.5934113641957774E+001
       H -9.4874519384886344E+000 -1.5078979491315403E+001  1.6685766609881604E+001
       O -9.0440986048145913E+000 -1.5951059875994869E+001  1.6820962670594966E+001
       H  2.6513011922408648E+001  1.0196110914047720E+001 -1.2893186865559527E+000
       H  2.7227605827207853E+001  1.1595166328984112E+001 -1.6627933964225292E+000
       O  2.7333009804037491E+001  1.0729931410026651E+001 -1.1124429776448157E+000
       H  1.3237007871855226E+001 -3.0849182959347576E+000  2.6701099830118935E+001
       H  1.3524248947855812E+001 -4.4471814710478634E+000  2.5951909554530307E+001
       O  1.2940170640368267E+001 -3.6372593057976252E+000  2.5892886524345236E+001
       H -6.3297210282283460E+000  9.8807751081455653E+000 -2.1294340120760546E+000
       H -7.7855140718924982E+000  1.0194581006667526E+001 -1.9761613095428634E+000
       O -6.9170042572308477E+000  1.0334717078580349E+001 -1.4975233418317295E+000
       H  5.2118649075209449E+000  5.7933694730415120E+000  1.8400109757374481E+000
       H  4.6379317816374304E+000  6.1991889739565664E+000  5.6007076244556908E-001
       O  5.0211222343901785E+000  5.3901496363063979E+000  8.9637878037093977E-001
       H  8.9570646331511750E-001 -2.4102004309442604E+000  3.1756423262883371E+000
       H  8.7134246606809818E-001 -8.3250850252050279E-001  2.8100693434902535E+000
       O  1.3188150517068253E+000 -1.5734739469143857E+000  3.1315688080618731E+000
       H -2.4847802781192665E+000  2.2503913062396666E+001 -4.1665561113700607E+000
       H -4.0168926905699980E+000  2.2496179274857571E+001 -4.6821525806829678E+000
       O -3.4797119656601292E+000  2.2200799020294056E+001 -3.9448156042325873E+000
       H  2.2492988650208158E+001  2.8444743947638997E+001  1.1393756735734980E+001
       H  2.2838765306113721E+001  2.6868259134590375E+001  1.1395854240977579E+001
       O  2.2085366206557904E+001  2.7567780731993938E+001  1.1194476701604158E+001
       H  2.5955371615978140E+000 -1.9883111699257245E+001 -7.2842532878205457E+000
       H  1.1776937011157784E+000 -1.9396285683697460E+001 -7.0980318024039963E+000
       O  2.0180512631475644E+000 -1.9448725952982635E+001 -6.6407185718830988E+000
       H  9.4732247437880872E+000  4.2665607553934395E+000  9.6103493817287493E+000
       H  9.5179872896297013E+000  3.5623938483229787E+000  1.1019860011341196E+001
       O  9.1309865704106112E+000  4.3455466532445710E+000  1.0514930805670087E+001
       H  1.1370100102635838E+001  1.9796829649192709E+001 -1.9730684972477597E+001
       H  1.2131514391901435E+001  1.9029850533238896E+001 -1.8963631837797333E+001
       O  1.1325763978233752E+001  1.9607451217061111E+001 -1.8813966157838664E+001
       H  1.5431261175174901E+001 -7.8012600456630494E+000 -1.6577082840026517E+001
       H  1.4914739030655531E+001 -7.4043922482317814E+000 -1.5228775350747682E+001
       O  1.4948756597495644E+001 -7.0842570904045736E+000 -1.6191964919364107E+001
       H  1.3546210638703052E+001 -3.1007740709126521E+000  2.9821974391685814E+001
       H  1.4070346659011253E+001 -3.7796408383035209E+000  2.8452291109489231E+001
       O  1.3845900290392228E+001 -2.9265113400670204E+000  2.8834059896495525E+001
       H  2.1494850772044913E+001  4.3488975788774109E+000  1.6650415925818141E+001
       H  2.2004597199866833E+001  4.4695641838890756E+000  1.5172556594079797E+001
       O  2.2245917537507008E+001  4.5289400570738154E+000  1.6127813394177341E+001
       H  1.4587914290283667E+001  2.1769690143953003E+001  1.2029550505740584E+001
       H  1.5366738668111013E+001  2.3197032337026414E+001  1.2199262769764516E+001
       O  1.5154852399895230E+001  2.2439114590510460E+001  1.1614496870352649E+001
       H  3.2679192550641782E+000  4.2163666439503755E+000  5.2283270119033594E+000
       H  3.6384097170410583E+000  3.9577541489777355E+000  3.7363919356083919E+000
       O  3.1211749390323509E+000  4.4736134586762768E+000  4.3314842733687824E+000
       H  1.7452998305853914E+001  2.2495654223579358E+001 -7.9160792817051613E+000
       H  1.8195461264809886E+001  2.1619920699559085E+001 -7.0014551172855990E+000
       O  1.8332334531747641E+001  2.2190678570831871E+001 -7.7587977091497091E+000
       H  3.0904192873013252E+000  3.5948538381080681E+001  1.4867677179938484E+001
       H  4.2928688178203078E+000  3.6027300679200508E+001  1.5809624150299712E+001
       O  3.8835536659448930E+000  3.6516258840024541E+001  1.5082559737635838E+001
       H  1.2466060983173215E+001  9.3975810806702087E-001  1.2333490685709373E+001
       H  1.1800502683661735E+001  1.3376900663429927E+000  1.0917542805866978E+001
       O  1.1697982789946117E+001  1.4205220179781730E+000  1.1905569740824184E+001
       H  1.3693945034239777E+001  1.7036580951427904E+001 -1.7670992415393716E+001
       H  1.2129218788880975E+001  1.7222518517599120E+001 -1.7648861596743448E+001
       O  1.2896879458415833E+001  1.7246655369500989E+001 -1.8258533324924553E+001
       H -9.3786682933229688E+000  1.4824619814421958E+001  5.9552975127125700E+000
       H -8.6492886417343335E+000  1.5633002358829373E+001  7.1383851104891063E+000
       O -9.4624888571699834E+000  1.5435097502138843E+001  6.7087449931653902E+000
       H  1.0894299954685886E+001  3.5603580415741447E+001  1.4985164515483737E+001
       H  9.5284140170421878E+000  3.6442721330521579E+001  1.5264539066833873E+001
       O  1.0326887541235834E+001  3.5980029569576701E+001  1.5663782411513640E+001
       H  5.6766433427877772E+000  6.3194983232093893E+000  1.4870546965186822E+001
       H  4.8489132216878277E+000  6.2513282498073020E+000  1.6059170834728054E+001
       O  5.7406274310812080E+000  6.6347034648612269E+000  1.5808013883817264E+001
       H -1.7806409183155827E+000  1.9219334627401491E+001 -5.1046973368715565E-001
       H -1.5284843261161789E+000  2.0608282672252031E+001 -7.2722654650144203E-001
       O -1.4527084910752488E+000  2.0010330814756696E+001  5.0932827442918931E-003
       H -5.2138345410862241E+000  1.8923514145539418E+001  2.3622044286951279E+001
       H -5.5080589263801905E+000  1.7640454174891598E+001  2.4433614291712143E+001
       O -5.2966878290153305E+000  1.7984584002522130E+001  2.3523321524103782E+001
       H  1.8951111548509179E+001 -9.3959949024926237E-001  5.8130193685180798E+000
       H  1.9190341896914596E+001 -1.9937115265109264E+000  7.0122009331065440E+000
       O  1.8676863589667938E+001 -1.8342757423055127E+000  6.1796172595711338E+000
       H -3.2944104143176737E+001  6.8856809990487164E+000  2.3248376908213046E+001
       H -3.3632405801747872E+001  5.5405279234835554E+000  2.3203172822053407E+001
       O -3.2854457152472726E+001  6.0218831062076017E+000  2.2914111557315827E+001
       H  1.0715528278743269E+001  8.9149385375733683E+000  1.3787263734906370E+001
       H  9.5461156074442304E+000  9.6771973601692096E+000  1.3675155905465232E+001
       O  1.0081811867742971E+001  9.1324120945069378E+000  1.3108869984569186E+001
       H  1.7676258713606710E+001 -1.7388351922855886E+001  2.5388820686466147E+001
       H  1.7707045175690677E+001 -1.8505795517121445E+001  2.6438507662168647E+001
       O  1.8267534723834100E+001 -1.7870787563726886E+001  2.5930449896000347E+001
       H -1.1891079189065821E+000  1.6210093428236416E+001 -5.5805318954001137E+000
       H -1.3515755479539718E-001  1.7219932230442350E+001 -5.3522562127841118E+000
       O -3.1688553864564417E-001  1.6503608005929340E+001 -5.9629986159738433E+000
       H  1.9205567584971313E+001  1.1093122772175583E+001  1.6955191704622592E+001
       H  1.8844208263781688E+001  1.0540557152021970E+001  1.5577175151477075E+001
       O  1.8705713699767834E+001  1.1317086270681481E+001  1.6135608321224129E+001
       H  3.5174293415174702E+000  9.9665390356835655E+000  2.6729680351609481E+001
       H  2.9169065769335072E+000  9.6501988778630903E+000  2.5315713946704964E+001
       O  3.0134488132850321E+000  9.3297116009346084E+000  2.6308615513117410E+001
       H  2.1742149009121761E+000 -5.9289719131941201E+000 -2.1498269673709123E+000
       H  2.6769348890640083E+000 -7.1600425713402265E+000 -1.2428282851170296E+000
       O  2.0554488585814754E+000 -6.8670545920242798E+000 -1.9161637396844662E+000
       H  2.4943752895051663E+000  9.9762271225583863E+000  1.6535862363448945E+001
       H  2.0177619426765672E+000  8.6506942254832904E+000  1.6612414459991289E+001
       O  2.5882919782008846E+000  9.1729792869846687E+000  1.7119598735739384E+001
       H  7.6869202218751802E+000  2.4115951666416102E+001  3.2131303644540331E+001
       H  6.8451542623850701E+000  2.3225441844047658E+001  3.2826992713665831E+001
       O  7.7358128829874788E+000  2.3250740353368798E+001  3.2546727138862423E+001
       H  8.4049157567314818E+000  3.3611271092630595E+001 -1.4982887758646486E+000
       H  9.6611680827585822E+000  3.2918412901967294E+001 -1.4962946982123626E+000
       O  8.7875705196916769E+000  3.2868680087778188E+001 -1.9354387272460745E+000
       H  8.1299144541752254E-003  1.0454893864491876E+001  1.1839286861013548E+001
       H -4.4381906112970565E-001  1.1367130717848973E+001  1.2909823795664147E+001
       O  1.1832623656488021E-001  1.1350741959548822E+001  1.2144964592955381E+001
       H  1.5998699926450881E+001  1.2559499671688840E+001 -1.8696120887948592E+001
       H  1.5852460568175367E+001  1.2577346127885320E+001 -2.0297543285386627E+001
       O  1.5629162827767276E+001  1.2111419432460780E+001 -1.9429263577651511E+001
       H  1.2640005124284286E+001 -1.5575286402779875E+000  1.7525498231728186E+001
       H  1.1620761279226230E+001 -1.4942239583351435E+000  1.6293076173610675E+001
       O  1.2485265425362110E+001 -1.0293712873725516E+000  1.6707491697620171E+001
       H  1.5233375176759759E+001  5.9262077549580710E+000  2.0824475860599890E+001
       H  1.4206972031668615E+001  6.7318941617478085E+000  2.0157581545689265E+001
       O  1.5007701665559896E+001  6.7759272316236991E+000  2.0712690878631889E+001
       H  3.0789842698877674E+001 -9.8738601492527045E-001  2.3197574921463758E+001
       H  2.9453721486767041E+001 -9.5291344559003710E-001  2.2373175169694459E+001
       O  2.9875524053413383E+001 -1.3091254009428368E+000  2.3187618849742133E+001
       H  2.0970788280554775E+001  1.5900618287779105E+001  1.7655731706666767E+001
       H  2.1571235975231179E+001  1.5362620217227082E+001  1.6391082179831141E+001
       O  2.1696232368372325E+001  1.5319959307259749E+001  1.7355262307517677E+001
       H  1.0606503996255519E+001  4.8967030803852403E+000 -6.4335530261484370E+000
       H  9.9830271706867713E+000  5.8925522082177686E+000 -5.4076258442624416E+000
       O  1.0720989777743899E+001  5.2589072639051366E+000 -5.5558971381733038E+000
       H -2.1520306237474855E+000  1.2951409845972636E+001 -5.7278462111078268E+000
       H -3.2713568814990839E+000  1.2268342300670236E+001 -5.0092104611386530E+000
       O -2.8056397917910076E+000  1.2229507358774795E+001 -5.8513913163590816E+000
       H  8.8434038883846160E+000  7.9451763852794777E+000  1.2488724787188209E+001
       H  9.2750195810531153E+000  6.7997670950757252E+000  1.1603972411274942E+001
       O  8.4316587058776769E+000  7.2416760814755374E+000  1.1886057111772685E+001
       H -1.5181216689556942E+001 -4.5834287603645185E+000  4.6607600669154943E+000
       H -1.6287775529725874E+001 -3.3647457943400285E+000  4.4401420417903585E+000
       O -1.5882798330655399E+001 -4.2122070397495666E+000  3.9955573472181380E+000
       H  1.1675819600271051E+000  8.3658565564732346E+000 -7.7702642829130433E+000
       H  3.3797345621706565E-001  8.4822205697102646E+000 -6.3657876696755755E+000
       O  2.1678996102049325E-001  8.4341471946654387E+000 -7.3788840398413438E+000
       H  1.3433934172974027E+001  9.0085078030346963E+000  7.0800463003637697E+000
       H  1.3593442302055456E+001  9.3276383074695381E+000  8.5421440224661200E+000
       O  1.4000354524039112E+001  9.5216977145681820E+000  7.7003089736616319E+000
       H  3.2310989272300912E+000  1.1495236313337227E+001  2.7174954295725882E+000
       H  2.7381542823873111E+000  1.2472628057981948E+001  1.7013228601285664E+000
       O  3.3591480140582872E+000  1.1691951132960108E+001  1.8411626492573607E+000
       H  1.3647783173740120E+001  1.5476673682851922E+001 -6.1854603996629187E+000
       H  1.4375541705596808E+001  1.4305812382197745E+001 -6.8559982869956864E+000
       O  1.4601178122609292E+001  1.5097372063246276E+001 -6.3131789597885577E+000
       H  1.4302959375929749E+001  1.8909310317824641E+001  1.3925677172492609E+001
       H  1.4013311668184421E+001  2.0464506195810134E+001  1.4190664922541295E+001
       O  1.3987037451076832E+001  1.9735373796750888E+001  1.3527395027801369E+001
       H  4.8581600962715914E+000 -3.9482593659049470E+000 -1.2399127729605517E+001
       H  4.8754155914018042E+000 -5.5160053260760442E+000 -1.1980013741246600E+001
       O  5.1270392481102158E+000 -4.8329654452212978E+000 -1.2684835674213804E+001
       H  7.6696813444900265E+000  1.0780401942210974E+001  4.3125031968337728E+000
       H  7.1431047650259130E+000  1.2007508979607310E+001  5.2248947556119703E+000
       O  7.5320271828028602E+000  1.1077180807051986E+001  5.2418470591819206E+000
       H  1.2010957313708694E+001  7.8035931131190992E+000  9.6130783940504170E+000
       H  1.2237044185354161E+001  9.2533099375470105E+000  1.0267331662577490E+001
       O  1.2687791483368787E+001  8.4339404811344636E+000  1.0043362906250506E+001
       H  3.8897980977174051E-001 -1.7189628585672628E-001 -9.5523201469692616E+000
       H  9.2756159436167485E-001  1.0690961218423216E+000 -8.8689009088234148E+000
       O  1.1789394377860518E-001  6.2017227124876406E-001 -9.0400273179029256E+000
       H  2.1708102330380621E+000  1.4029404730864405E+001  5.3359180858165756E+000
       H  1.6119007694574319E+000  1.3314945966190480E+001  6.6400885272434547E+000
       O  1.3824724235570005E+000  1.3762903192184986E+001  5.8010736163297727E+000
       H -6.4195685071179200E+000 -7.2689468494105487E+000  1.6784760040047939E+001
       H -6.8697184468587134E+000 -6.1412665641760933E+000  1.5817693055400060E+001
       O -6.6597314553347458E+000 -6.2903512243716388E+000  1.6745065685149257E+001
       H  1.9587835117156420E+001  2.1895892096302099E+000  1.3838013089448220E+001
       H  1.8808905713551137E+001  1.2526661019407248E+000  1.4807682329158039E+001
       O  1.8688767491035872E+001  1.9455960022153076E+000  1.4133118673866662E+001
       H  1.5942083037932765E+001 -4.1679053528068888E+000  2.8743714110872578E+001
       H  1.7472303126220687E+001 -4.8191229031013254E+000  2.8616290666100959E+001
       O  1.6731393458749025E+001 -4.4719042423788231E+000  2.9253160521319348E+001
       H  1.9527234095417537E+001  1.1998859754012776E+000  2.0628607092733478E+001
       H  2.0112516519135852E+001  1.7410992582808098E+000  2.1902800524096232E+001
       O  2.0137525246803694E+001  9.3150858741381060E-001  2.1332285138029384E+001
       H  9.0394099290513061E+000  1.9644134497608015E+000 -5.3692246381832502E+000
       H  9.8540599842755743E+000  6.9449118522592035E-001 -5.8396362454915201E+000
       O  9.0450414810857769E+000  9.7453673330895507E-001 -5.2418067655314875E+000
       H  9.4946813547747606E+000 -6.0185117509630413E+000 -4.9945803220323750E+000
       H  8.1116201697310846E+000 -6.5318313215838479E+000 -4.7641447235157761E+000
       O  8.9622250179902014E+000 -6.8760894519947904E+000 -4.9135734499035797E+000
       H  3.5288066284783795E+001  1.5456867069483817E+001  1.4107218550016107E+001
       H  3.5486289866804434E+001  1.6044955941232278E+001  1.5642980937334881E+001
       O  3.5905904173666819E+001  1.5733221897012420E+001  1.4775282178668839E+001
       H  1.9497003325001547E+001  8.8561086671942064E+000  8.0210205315111391E+000
       H  2.0031871747982645E+001  1.0051250179096336E+001  7.5134564273506994E+000
       O  1.9142108558732925E+001  9.6136632577106553E+000  7.5695961161665153E+000
       H  8.8626271067941556E+000 -6.9460602792183295E+000  7.5981926066760117E+000
       H  9.0420406118384236E+000 -5.3844566276211836E+000  7.8773292106259563E+000
       O  8.7839397410707534E+000 -6.2235569993719952E+000  8.2687548360745904E+000
       H -3.3098449021349987E+000  5.3095610177338539E+000  5.6387565751101123E+000
       H -2.4116109537549257E+000  4.9532752682101773E+000  4.4224915787716252E+000
       O -3.2916057975164517E+000  4.7713042602960414E+000  4.8260880251735667E+000
       H  1.2892724109228954E+001 -1.4062826395740570E+001 -3.1553480800272342E+000
       H  1.2442848640169441E+001 -1.3642609549000852E+001 -4.6456985522581213E+000
       O  1.2924882072688572E+001 -1.3457513723745020E+001 -3.8773347749498854E+000
       H  2.1319383206462216E+001 -1.3442147118624082E+000  1.2047372324104348E+000
       H  2.1932380588153990E+001 -2.2899613769351657E+000  2.2361170405030661E-001