 # Version information for this restart file 
 # current date 2025-03-29 16:24:50.721
 # current working dir /ccc/scratch/cont003/gen2309/sicilana/NPT/128_H2O_4_NaCl_10_wt_673K_1000bar/BATCH_10_MD_T_673_P_1000_steps_1000_dt_0.5_NH2O_128_NaCl_4_abc_17.19_17.19_17.19_wt_9.20
 # Program compiled at                                       2024-10-31 15:04:21
 # Program compiled on                                                 topaze131
 # Program compiled for                                                   x86_64
 # Source code revision number                                                  
 &GLOBAL
   PRINT_LEVEL LOW
   PROJECT_NAME "brines"
   RUN_TYPE MD
   FLUSH_SHOULD_FLUSH T
 &END GLOBAL
 &MOTION
   &MD
     ENSEMBLE NPT_I
     STEPS 1000
     TIMESTEP  4.9999999999999994E-001
     STEP_START_VAL 25250
     TIME_START_VAL  1.2625000000007300E+004
     ECONS_START_VAL -2.4590398713531335E+003
     TEMPERATURE  6.7300000000000011E+002
     &BAROSTAT
       PRESSURE  1.0000000000000000E+003
       TIMECON  9.9999999999999986E+001
       &VELOCITY
           1.4811541312818541E-006
       &END VELOCITY
       &MASS
           4.2836593343398705E+007
       &END MASS
       &THERMOSTAT
         TYPE CSVR
         &CSVR
           TIMECON  4.8377686530095694E+001
           &THERMOSTAT_ENERGY
              -3.8445416212057061E-004
           &END THERMOSTAT_ENERGY
           &RNG_INIT
 Wiener process for Thermostat # 1        1 F T F   5.9572847778716542E-01        2124010673.0        3822755766.0        1370988922.0        2669951181.0         177722708.0        4131065342.0             12345.0             12345.0             12345.0             12345.0             12345.0             12345.0             12345.0             12345.0             12345.0             12345.0             12345.0             12345.0
           &END RNG_INIT
         &END CSVR
       &END THERMOSTAT
     &END BAROSTAT
     &THERMOSTAT
       TYPE CSVR
       &CSVR
         TIMECON  4.9999999999999994E+002
         &THERMOSTAT_ENERGY
            -7.9853785806915245E-001
         &END THERMOSTAT_ENERGY
         &RNG_INIT
 Wiener process for Thermostat # 1        1 F T F   1.5022023705434369E+00        4108116748.0        3519557945.0         814774154.0        4191264155.0         309454685.0        1326604571.0             12345.0             12345.0             12345.0             12345.0             12345.0             12345.0             12345.0             12345.0             12345.0             12345.0             12345.0             12345.0
         &END RNG_INIT
       &END CSVR
     &END THERMOSTAT
     &AVERAGES T
       &RESTART_AVERAGES
         ITIMES_START 1
         AVECPU  2.2838812142295467E+001
         AVEHUGONIOT  0.0000000000000000E+000
         AVETEMP_BARO  3.0070728250405597E+002
         AVEPOT -2.4597055537850333E+003
         AVEKIN  1.2257478291374011E+000
         AVETEMP  6.5994900113156052E+002
         AVEKIN_QM  0.0000000000000000E+000
         AVETEMP_QM  0.0000000000000000E+000
         AVEVOL  3.8246062022361031E+004
         AVECELL_A  3.3620195102504020E+001
         AVECELL_B  3.3620195102504020E+001
         AVECELL_C  3.3620195102504020E+001
         AVEALPHA  9.0000000000000000E+001
         AVEBETA  9.0000000000000000E+001
         AVEGAMMA  9.0000000000000000E+001
         AVE_ECONS -1.2125819070846079E+002
         AVE_PRESS  3.6483473835521073E+002
         AVE_PXX  3.2903591680385927E+002
       &END RESTART_AVERAGES
     &END AVERAGES
   &END MD
   &PRINT
     &TRAJECTORY SILENT
       FILENAME =brines-1.xyz
       &EACH
         MD 1
       &END EACH
     &END TRAJECTORY
     &CELL SILENT
       FILENAME =brines-1.cell_xyz
       &EACH
         MD 1
       &END EACH
     &END CELL
     &VELOCITIES SILENT
       FILENAME =brines-1.vel
       &EACH
         MD 1
       &END EACH
     &END VELOCITIES
     &FORCES SILENT
       FILENAME =brines-1.force
       &EACH
         MD 1
       &END EACH
     &END FORCES
     &STRESS SILENT
       FILENAME =brines-1.stress
       &EACH
         MD 1
       &END EACH
     &END STRESS
     &RESTART SILENT
       FILENAME =brines-1.restart
       &EACH
         MD 1
       &END EACH
     &END RESTART
     &RESTART_HISTORY SILENT
       &EACH
         MD 50
       &END EACH
     &END RESTART_HISTORY
   &END PRINT
 &END MOTION
 &FORCE_EVAL
   METHOD QS
   STRESS_TENSOR ANALYTICAL
   &DFT
     BASIS_SET_FILE_NAME /ccc/work/cont003/gen2309/sicilana/DATA_CP2K/GTH_BASIS_SETS
     POTENTIAL_FILE_NAME /ccc/work/cont003/gen2309/sicilana/DATA_CP2K/GTH_POTENTIALS
     &SCF
       MAX_SCF 50
       EPS_SCF  9.9999999999999995E-008
       &OT T
         MINIMIZER DIIS
         PRECONDITIONER FULL_SINGLE_INVERSE
       &END OT
       &OUTER_SCF T
         EPS_SCF  9.9999999999999995E-008
         MAX_SCF 50
       &END OUTER_SCF
     &END SCF
     &QS
       EPS_DEFAULT  1.0000000000000000E-014
       EPSFIT  1.0000000000000000E-004
       EPSISO  9.9999999999999998E-013
       EPSRHO0  9.9999999999999995E-007
       QUADRATURE GC_LOG
       EXTRAPOLATION ASPC
       METHOD GAPW
     &END QS
     &MGRID
       NGRIDS 4
       CUTOFF  5.0000000000000000E+002
       REL_CUTOFF  6.0000000000000000E+001
     &END MGRID
     &XC
       DENSITY_CUTOFF  1.0000000000000000E-010
       GRADIENT_CUTOFF  1.0000000000000000E-010
       TAU_CUTOFF  1.0000000000000000E-010
       &XC_FUNCTIONAL NO_SHORTCUT
         &PBE T
           PARAMETRIZATION REVPBE
         &END PBE
       &END XC_FUNCTIONAL
       &VDW_POTENTIAL
         POTENTIAL_TYPE PAIR_POTENTIAL
         &PAIR_POTENTIAL
           TYPE DFTD3
           PARAMETER_FILE_NAME /ccc/work/cont003/gen2309/sicilana/DATA_CP2K/dftd3.dat
           REFERENCE_FUNCTIONAL "PBE"
           CALCULATE_C9_TERM T
           REFERENCE_C9_TERM T
           VERBOSE_OUTPUT T
           D3_EXCLUDE_KIND 3
         &END PAIR_POTENTIAL
       &END VDW_POTENTIAL
     &END XC
     &REAL_TIME_PROPAGATION
       INITIAL_WFN RT_RESTART
     &END REAL_TIME_PROPAGATION
     &PRINT
       &MO_CUBES SILENT
         WRITE_CUBE F
         NLUMO 10
         NHOMO 2
         &EACH
           MD 200
         &END EACH
       &END MO_CUBES
     &END PRINT
   &END DFT
   &SUBSYS
     &CELL
       A  1.8896514087598298E+001  0.0000000000000000E+000  0.0000000000000000E+000
       B  0.0000000000000000E+000  1.8896514087598298E+001  0.0000000000000000E+000
       C  0.0000000000000000E+000  0.0000000000000000E+000  1.8896514087598298E+001
       MULTIPLE_UNIT_CELL 1 1 1
     &END CELL
     &COORD
       H  8.6989765763582358E+000  2.3799957847136504E+001 -5.4484804084114535E-001
       H  8.4544615578516815E+000  2.3104615119593760E+001  6.7834639697438737E-001
       O  9.2644301048966131E+000  2.3443845203995131E+001  1.7208869499435162E-001
       H  9.1100559755171009E+000 -6.6480483850293925E+000  1.9770986669394974E+000
       H  8.8505928554051625E+000 -6.7379551343846433E+000  4.3133001406913579E-001
       O  8.6905315735674176E+000 -7.2790143113192878E+000  1.2758908821454611E+000
       H -1.0899313619319747E+001  4.7370806941993827E+001  4.7137161987632510E+001
       H -1.1757909895702982E+001  4.8398266808556230E+001  4.6447850269322764E+001
       O -1.0817368019981608E+001  4.8218699996226569E+001  4.6720024401179543E+001
       H  8.9523644291083393E+000  2.3830098843566617E+001  2.5907028155780676E+001
       H  7.6976545192954253E+000  2.4409844628952513E+001  2.5314007431696233E+001
       O  8.0258612033855918E+000  2.3604416957089523E+001  2.5643257921917751E+001
       H -7.9312228990801907E+000  6.3099536765518716E+000  5.6871813001333242E+000
       H -7.7951994278458701E+000  6.6459198589709496E+000  7.1261124256421287E+000
       O -8.5135612541332577E+000  6.4668930465856187E+000  6.5477196103215567E+000
       H  3.3290646728901052E+001  2.5486899300905197E+001 -7.9117011170335552E+000
       H  3.4567772180055499E+001  2.5374313566059577E+001 -7.1376496817525457E+000
       O  3.3661468920071250E+001  2.5618101355579704E+001 -7.0864352173874945E+000
       H -5.3738759204910220E+000  4.5592465388577477E+000  8.6996157243092807E+000
       H -6.8412951927236030E+000  4.4000140140050759E+000  8.2072447651682658E+000
       O -5.9524247863848876E+000  4.6694682402059797E+000  7.8826139969835358E+000
       H  2.3962074743017567E+001  4.9869159537401435E+000  1.5563847762977792E+000
       H  2.4859111628389954E+001  5.7149382335080148E+000  2.3598398003757493E+000
       O  2.4950536613077187E+001  4.9063050229954914E+000  1.7770353952837368E+000
       H  1.9932173809567647E+001  1.3513991341910547E+001  1.4595002339620379E+001
       H  2.1117279807484401E+001  1.3037163134004853E+001  1.4135572598540495E+001
       O  2.0698414670433944E+001  1.3893058271309908E+001  1.4254306918437971E+001
       H  2.2873039187332154E+001  4.2371889290926679E-001  1.9955625135162155E+001
       H  2.3992483247622076E+001 -5.5993974571266691E-001  2.0301165924490927E+001
       O  2.3043816571100390E+001 -2.3363433311725829E-001  2.0556531729891041E+001
       H  1.0583396413845746E+001 -3.2253551946368217E+000 -7.6172229300941110E+000
       H  9.6918981769139698E+000 -2.1778478107408668E+000 -8.1605279278785314E+000
       O  9.6992127446670899E+000 -3.1083343866910491E+000 -7.8887188580654222E+000
       H  1.1227012454113801E+001  2.4820347539909280E+000  1.9322272092680592E+001
       H  1.1992733400529902E+001  3.3084474961374921E+000  1.8323689827621365E+001
       O  1.2145326812173657E+001  2.6892795057938463E+000  1.9121421015173375E+001
       H  1.5481718297025179E+001  1.6364886055836582E+001  6.0406513657898433E+000
       H  1.7030554505645501E+001  1.6094308724305584E+001  5.7574309002198136E+000
       O  1.6101346329030651E+001  1.5850840899200097E+001  5.4067680543472294E+000
       H  4.8715173474445859E+000 -1.0317494779120683E+001  9.8489957382676352E-001
       H  4.9940440496657486E+000 -1.0656485199904814E+001 -6.3725253612634802E-001
       O  4.8539134693627286E+000 -9.9128010277845657E+000  1.5644693088487189E-003
       H  3.1122901333894649E+001  3.2691208794952104E+001  8.4668040761341670E-002
       H  3.1068637377645292E+001  3.3562499086219425E+001 -1.0849402516657993E+000
       O  3.0851526297997076E+001  3.2684963016991318E+001 -8.3144582675435075E-001
       H  1.3043419752850202E+001  4.8774124291806265E-001 -8.2156782179210808E+000
       H  1.4039475003579412E+001 -4.3489877768442303E-001 -7.5608885548172688E+000
       O  1.3527893904273020E+001  2.7653538030359337E-001 -7.3903311500500939E+000
       H  2.1634144811726834E+001  2.1902354395306705E+000  4.4520053226267438E+000
       H  2.3027259449742935E+001  1.6663623537990835E+000  4.5121702785427846E+000
       O  2.2323174135470047E+001  2.0279887888255757E+000  5.0934526593197589E+000
       H  8.0469775436515896E+000 -1.6012073403189218E+000  1.6993689508929606E+001
       H  6.9677421557069703E+000 -2.5208017393138884E+000  1.6553012760045608E+001
       O  7.5309882144888709E+000 -2.3746908596995913E+000  1.7332288255533271E+001
       H  3.9051391856678870E+000  1.6976818743961438E+001  8.3722246255520911E+000
       H  5.2821554636267987E+000  1.6575870031620909E+001  8.6874838020536878E+000
       O  4.5521670455287442E+000  1.6376512463730847E+001  8.0408053038889697E+000
       H  2.0524031098536284E+001  2.7000752367639006E+001  4.4552630930317756E+000
       H  1.9349588614468122E+001  2.7531263567900652E+001  3.8217518334752834E+000
       O  2.0250929806797050E+001  2.7326828147246999E+001  3.6039167875392746E+000
       H  1.6066483485466303E+001  6.7149533697650039E+000  2.1752330595934023E+001
       H  1.5788730597561855E+001  7.6672541618514654E+000  2.0657454561904871E+001
       O  1.5927242052426259E+001  7.6272241423652680E+000  2.1576237394778950E+001
       H  7.7775076619106978E+000 -1.2890447682358007E+001  1.6074788486011450E+001
       H  7.0841661499828481E+000 -1.2226612738240737E+001  1.7103458740036444E+001
       O  7.4072207988465131E+000 -1.3107976411439008E+001  1.6916322286825984E+001
       H  2.9588419636561024E+001  1.0530652636449611E+001  2.3666925417842794E+001
       H  2.9909098229023868E+001  1.1105574419480817E+001  2.2267867959295828E+001
       O  2.9558585194426712E+001  1.1367544122640354E+001  2.3136913144368016E+001
       H -1.4636435685365546E+001  7.6800580314491063E+000  1.2863648971670143E+001
       H -1.4158507744516264E+001  9.0845482580948573E+000  1.2279194777819882E+001
       O -1.3928324654796553E+001  8.1394443517735695E+000  1.2324280486826304E+001
       H  1.5627877418209535E+000  5.1052975733862178E+000  9.0366080384173291E+000
       H  3.1073357479592403E+000  4.8282159839489180E+000  9.0964753073076494E+000
       O  2.2248751551445025E+000  4.4522782607632285E+000  9.0337772232011382E+000
       H -1.0900041511562943E+001 -1.5256303489886848E+001  1.6223413571326503E+001
       H -1.0114268104949437E+001 -1.4866086394527228E+001  1.4910329126949005E+001
       O -1.0159826622242836E+001 -1.5474136159190076E+001  1.5645668581639134E+001
       H  2.4907441646473071E+001  9.4742623025062151E+000 -1.5948861753132995E+000
       H  2.5811712386759432E+001  1.0622514263780566E+001 -1.2528632150678982E+000
       O  2.5565005622910888E+001  1.0143990992075192E+001 -2.0226630894512820E+000
       H  1.2641039768549721E+001 -1.7077698196056053E+000  2.5476147843711335E+001
       H  1.2570580532756535E+001 -2.4750679635351469E+000  2.4117598979421466E+001
       O  1.3018752056158128E+001 -2.4472819749471095E+000  2.4973060849958443E+001
       H -7.9450904379791574E+000  1.1189083929825030E+001  1.3271109223891162E+000
       H -6.6840478647977264E+000  1.1650194374461348E+001  1.9629436183764346E+000
       O -7.1194797124788485E+000  1.0757790917547197E+001  1.6595737483115653E+000
       H  4.5580541047612968E+000  7.4899270236474731E+000  2.9133458753600108E+000
       H  3.2406409887740240E+000  8.4253102592679152E+000  2.5604369738910258E+000
       O  3.9829706194522143E+000  7.8967176613196068E+000  2.2120261226340876E+000
       H  3.5178886990499375E-001 -1.4505963589831259E+000  3.9822213398696551E+000
       H  1.5883588907085233E+000 -8.5298804264822625E-001  3.3770274069835704E+000
       O  1.0603570936984976E+000 -1.6121532128052323E+000  3.2716351814452032E+000
       H -3.4235013503142344E+000  2.1042876987731429E+001 -2.7085469745011150E+000
       H -4.5388474614576628E+000  2.1183597133563268E+001 -1.7968859951237754E+000
       O -4.1598768190723279E+000  2.1646396775904311E+001 -2.6133882347971280E+000
       H  2.1085198633532865E+001  2.6552573413740408E+001  8.6610459192807951E+000
       H  1.9960371216700160E+001  2.7454622578450088E+001  8.1504446159994668E+000
       O  2.0456087017072189E+001  2.7152333717781751E+001  8.9933224149041404E+000
       H  2.4796340114313296E+000 -1.6529199353651880E+001 -8.1564481323700413E+000
       H  2.5370923719182197E+000 -1.7826961052125451E+001 -7.5894387480340315E+000
       O  2.9549982136594313E+000 -1.6933199865676407E+001 -7.4278625828633968E+000
       H  1.0392246870709148E+001  5.5367998576251569E+000  9.6301271792467791E+000
       H  1.0189329612890006E+001  4.3740113636188873E+000  1.0542177200997040E+001
       O  1.0372520983828084E+001  4.5510054229979602E+000  9.5523597517208163E+000
       H  9.1141963376158763E+000  1.8946712922774861E+001 -1.8322703044654634E+001
       H  9.9973620962541485E+000  1.8805583630138702E+001 -1.9382499448132879E+001
       O  9.5331255872005265E+000  1.9592890793927605E+001 -1.8895343883723889E+001
       H  1.5070066675958767E+001 -4.4289688367839837E+000 -1.4116128119718478E+001
       H  1.4731319981799011E+001 -5.8188439771980942E+000 -1.4560447685095340E+001
       O  1.4329316070534523E+001 -5.0272574115120712E+000 -1.4212048062566186E+001
       H  1.3136884107585207E+001 -2.8015161789390062E+000  2.9027262404099940E+001
       H  1.3920886500580906E+001 -2.2629836603217179E+000  2.7750585593612453E+001
       O  1.3429939205309497E+001 -1.9692755971100679E+000  2.8509643697116424E+001
       H  2.2989045175196232E+001  4.5720577425285072E+000  1.5991761457434732E+001
       H  2.2047324107843412E+001  3.9044047924232070E+000  1.6887649616977143E+001
       O  2.2058604271791111E+001  4.4749130754149444E+000  1.6157045652893828E+001
       H  1.4078415510999164E+001  2.2259568554993614E+001  1.1829990366287344E+001
       H  1.3623071088707601E+001  2.3092952326594784E+001  1.3041629580135631E+001
       O  1.3254577966775408E+001  2.2603354731210679E+001  1.2303859559785330E+001
       H  3.4477519269573507E+000  4.0431319001261912E+000  5.2420266257104942E+000
       H  2.7676565622340101E+000  5.2353537285622398E+000  5.9693850472703245E+000
       O  3.4644628430891062E+000  4.9651465385940119E+000  5.3998521628976164E+000
       H  1.6679644947924050E+001  2.2246321067128964E+001 -7.5590567583193504E+000
       H  1.7781334369010320E+001  2.1655836617427415E+001 -6.5469707113823512E+000
       O  1.7565037502479392E+001  2.2424902328941627E+001 -7.1458989040936967E+000
       H  4.1976565846009537E+000  3.4470045442142663E+001  1.3669988977989471E+001
       H  4.8916361547250746E+000  3.5910143694307401E+001  1.3744620595722585E+001
       O  4.0460788596796649E+000  3.5503335945891344E+001  1.3856101912881353E+001
       H  9.7292193406855230E+000  2.4158359129968940E+000  1.3686106136846698E+001
       H  1.1078895869822198E+001  1.5071003019221390E+000  1.3540099122188819E+001
       O  1.0352651271447920E+001  2.0114734043621580E+000  1.3084436182585467E+001
       H  1.2150806334016995E+001  1.6661331156930338E+001 -1.8937069149818598E+001
       H  1.2629882474663651E+001  1.7237042510221087E+001 -1.7549893742013424E+001
       O  1.2083047539128428E+001  1.6557252813964279E+001 -1.7986127918153866E+001
       H -8.3284384721241072E+000  1.3167174760370422E+001  5.5567711724472497E+000
       H -8.1607097855740118E+000  1.4668671006757965E+001  5.5990857410540036E+000
       O -8.7526548524145262E+000  1.4004116882905684E+001  5.6967427928511407E+000
       H  7.8256004940747514E+000  3.3601292554103267E+001  1.4461017292254352E+001
       H  8.3904464107593224E+000  3.5138593485830292E+001  1.4360122758074054E+001
       O  7.5839098308275679E+000  3.4570478367108812E+001  1.4556555300849746E+001
       H  5.7992759887056513E+000  7.4524370169608671E+000  1.4414782279440313E+001
       H  6.9848670957661927E+000  6.9310702866730285E+000  1.3541291677512737E+001
       O  6.6837714884523489E+000  6.9520173812829587E+000  1.4488054376297100E+001
       H -7.9004342601531918E-001  1.8889598457942597E+001  1.1738982212846531E-001
       H -1.0155101527471011E+000  2.0200586189607655E+001  5.7583501472172072E-001
       O -8.8177003553760891E-001  1.9312484320059962E+001  1.0247996808134023E+000
       H -4.4475918427515184E+000  1.7038578924389682E+001  2.2473478492468978E+001
       H -4.1423525228919598E+000  1.8444103354581365E+001  2.2009601202520123E+001
       O -4.8306458129808707E+000  1.7822787268761640E+001  2.2150178822907947E+001
       H  1.8066239117782082E+001 -5.7369596113889032E-001  6.1098460604203142E+000
       H  1.9101849119911112E+001 -1.6311064795789270E+000  6.2884052840552815E+000
       O  1.8286076724321724E+001 -1.4746142578587076E+000  5.7953865137317004E+000
       H -3.1140769733165580E+001  7.4101949101993076E+000  2.2864894890425546E+001
       H -3.2239605789840432E+001  6.6796883687432489E+000  2.3781767323196092E+001
       O -3.2053429905504657E+001  7.1450582583681488E+000  2.2920421781450212E+001
       H  1.1994223951668836E+001  8.0078840192091949E+000  1.3806109020254384E+001
       H  1.0538489102157520E+001  8.1659674654635097E+000  1.3854611015199749E+001
       O  1.1242483155062621E+001  7.8491123607990332E+000  1.3269321600786151E+001
       H  1.7888454982499503E+001 -1.6911677975563737E+001  2.5815034782435507E+001
       H  1.6904321988499873E+001 -1.6890533281610598E+001  2.6941964872212957E+001
       O  1.7288778725542098E+001 -1.7498197217790594E+001  2.6329363523560655E+001
       H  3.8817887569976006E-001  1.6660748240532428E+001 -5.8402786115769905E+000
       H -9.1252585066046443E-001  1.7262220227139295E+001 -5.4357555499729759E+000
       O -4.4012194900246110E-001  1.6977870475137799E+001 -6.2200826053921476E+000
       H  1.7949739710802078E+001  1.1561728278758929E+001  1.6811960578160168E+001
       H  1.6447364730901235E+001  1.1956830429400192E+001  1.6152737972487248E+001
       O  1.7220239566811301E+001  1.1280372125991175E+001  1.6194795673381172E+001
       H  3.9668741770615035E+000  1.0242502038576506E+001  2.5363445203038822E+001
       H  3.2125399635827265E+000  1.1208747214065449E+001  2.6265323909178246E+001
       O  3.1145203251679585E+000  1.0533075805114461E+001  2.5545160120914431E+001
       H  1.3177044878818367E+000 -7.4196110602708556E+000 -2.6419682668724414E+000
       H  2.1721638921379443E+000 -6.7280622109168542E+000 -1.3612369001597506E+000
       O  1.8291882031695397E+000 -7.5024754603580392E+000 -1.8179588054947358E+000
       H  2.4618964051080074E+000  8.5843139245805631E+000  1.5398997012658016E+001
       H  3.2628788114217055E+000  9.0300730110532168E+000  1.6629222084066630E+001
       O  3.3327651244761416E+000  8.4057492052288030E+000  1.5911902809613231E+001
       H  8.1740262248780695E+000  2.3507142963990347E+001  3.0245987784650136E+001
       H  9.1999895381068431E+000  2.4180780463856905E+001  3.1300165996319688E+001
       O  8.2860027272377828E+000  2.3896009041912926E+001  3.1160107109449321E+001
       H  8.3716122136186559E+000  3.2652850612399554E+001 -1.3160177905761175E+000
       H  9.9916081097657017E+000  3.2336625320731756E+001 -1.3085202789518449E+000
       O  9.0976511432993838E+000  3.1996683952131868E+001 -1.1646730947296484E+000
       H  1.3442537028977732E+000  9.9958235168295637E+000  1.3311226788386932E+001
       H  1.8189268547896247E+000  1.1236903192222032E+001  1.2451844422336150E+001
       O  1.5471875814842484E+000  1.0952510232337739E+001  1.3435060371621733E+001
       H  1.5348710684394749E+001  1.1687808936551583E+001 -1.7523772626999843E+001
       H  1.4045344994671972E+001  1.0815416247716373E+001 -1.7333312464997828E+001
       O  1.4875765754769862E+001  1.0942399792265459E+001 -1.7885951839270458E+001
       H  1.1625856363666536E+001 -1.8752935534090491E+000  1.6344636475401323E+001
       H  1.1531709942637994E+001 -3.3466030161801128E+000  1.6526622682555598E+001
       O  1.1610717777631688E+001 -2.5094776340698997E+000  1.7110706164642806E+001
       H  1.3693053070571967E+001  4.5964800155327037E+000  2.1281222068299197E+001
       H  1.3270233904311420E+001  5.3076450117189617E+000  2.0145337193548905E+001
       O  1.3541366572872525E+001  5.4408648239540991E+000  2.0985089348312972E+001
       H  2.9859749493626204E+001 -1.0251832988756688E+000  2.2342586258267435E+001
       H  2.8561380832351659E+001 -2.4277348983068256E-001  2.2805610518713447E+001
       O  2.9137507155816273E+001 -1.0138566784193539E+000  2.3043562173967086E+001
       H  1.8144131804988621E+001  1.5909407039355306E+001  1.5521662441982917E+001
       H  1.8116910373114894E+001  1.4690536125446245E+001  1.6623459933564721E+001
       O  1.7656835671929645E+001  1.5034839891377093E+001  1.5799851933919790E+001
       H  1.0979393084779588E+001  5.8660001526614636E+000 -5.5566348863676813E+000
       H  1.1247684712444459E+001  4.3011732409497130E+000 -5.2609972235062319E+000
       O  1.0881041205605204E+001  4.9641875464943848E+000 -5.9286633670699631E+000
       H -1.7719007215953513E+000  1.1188430688666720E+001 -4.8073439091876669E+000
       H -2.2143397486447043E+000  1.2087807212520282E+001 -5.9381439173518107E+000
       O -2.0167780730904550E+000  1.1162978995338003E+001 -5.7292657328833432E+000
       H  9.8400514613152890E+000  7.4998219259167485E+000  1.0735988020431977E+001
       H  8.6058898754173363E+000  7.5901941275044944E+000  9.7000950883525476E+000
       O  8.8853578834244367E+000  7.3579600809047401E+000  1.0647445229750046E+001
       H -1.3486956059153391E+001 -2.0723252117430668E+000  3.7649923659905307E+000
       H -1.4662742184253856E+001 -1.9422544668662118E+000  2.7980256152765377E+000
       O -1.4111789886028761E+001 -2.5992401439308268E+000  3.2614489360625063E+000
       H  1.1516033648157937E+000  8.2634400740422702E+000 -7.7207656461974050E+000
       H  4.8137060490948619E-001  7.7807855845397054E+000 -6.5573650665037597E+000
       O  1.1142739531975681E+000  8.4624125070622931E+000 -6.7468377745406771E+000
       H  1.3937018101694083E+001  9.3711875503998900E+000  7.1063239278969510E+000
       H  1.4549340486091259E+001  1.0516795798352966E+001  8.1302109581612498E+000
       O  1.4697421814269445E+001  9.6379195680229923E+000  7.6209222966724619E+000
       H  3.9240340902679796E+000  1.0818091341405285E+001  6.0147871739325121E-001
       H  3.7576884017418242E+000  1.0198796262958291E+001  2.0231055012690855E+000
       O  3.7624328572291006E+000  1.1120995017406859E+001  1.5803088161220904E+000
       H  1.2860588209331873E+001  1.3755484943851318E+001 -6.8468905578499388E+000
       H  1.3245584872154449E+001  1.3865980845881895E+001 -5.2945424577864717E+000
       O  1.3525331278577834E+001  1.4194500341600488E+001 -6.2214327846916584E+000
       H  1.3415478527426499E+001  1.9171293910859145E+001  1.3055869536391111E+001
       H  1.3336945115097999E+001  1.9646998702028210E+001  1.4662075990001679E+001
       O  1.3162265708133592E+001  1.8941914289437189E+001  1.3969427891786045E+001
       H  5.6465454875946115E+000 -5.6094038250008849E+000 -1.2444558045648320E+001
       H  6.7052964534994439E+000 -4.7995216513286456E+000 -1.1754977873000486E+001
       O  5.8857567627954319E+000 -5.3454120673817620E+000 -1.1552056977917079E+001
       H  8.6636811355203491E+000  8.7864708519489128E+000  2.7786299527224347E+000
       H  8.6148645597737978E+000  8.6708782456734337E+000  4.3100893289564617E+000
       O  8.4061778367526099E+000  8.2139390566149046E+000  3.4580900736802507E+000
       H  1.0318949996120578E+001  1.0186770026693232E+001  9.7747847390732421E+000
       H  1.1094960677665679E+001  9.7923935015177594E+000  1.1062894552741819E+001
       O  1.1051519154218255E+001  9.6658247875522836E+000  1.0133224062159275E+001
       H  7.5460350476078097E-001  4.7796454903447011E-001 -9.2004692610796468E+000
       H -1.8217975157889471E-001  1.7114535357957057E+000 -8.9892634678028163E+000
       O -2.0298568646485545E-002  7.8228962420227488E-001 -8.7119361261842503E+000
       H  3.3754286251502932E+000  1.3904860482279014E+001  4.5250962259125123E+000
       H  2.5390815258506292E+000  1.5098339983843294E+001  5.0216299879794457E+000
       O  3.0089962630210718E+000  1.4312172484877912E+001  5.3281243068936304E+000
       H -7.3786537957772858E+000 -6.0461937532332541E+000  1.5049103268440842E+001
       H -6.2629298480896951E+000 -5.2962480286143228E+000  1.5825453177726009E+001
       O -6.9188710943835154E+000 -5.1960068231267265E+000  1.5099684699667428E+001
       H  1.7384638377176810E+001  7.8146088770024846E-001  1.4725211897277850E+001
       H  1.6980265828425416E+001  3.7652137975708561E-001  1.3317853702833927E+001
       O  1.7159186322681911E+001  1.1360750555053269E+000  1.3863742320740689E+001
       H  1.6865623549615108E+001 -5.6254906238987408E+000  2.9704308145993441E+001
       H  1.5664586851036164E+001 -4.8746833864467440E+000  3.0080664479016043E+001
       O  1.6498902247403521E+001 -4.7423871137880438E+000  2.9604840003790326E+001
       H  1.9134240102765041E+001  1.0256480348638557E+000  2.1312772914258009E+001
       H  1.8862023794655496E+001  6.8282898126385028E-001  2.2779280067676041E+001
       O  1.9240885217362823E+001  1.4024175743032237E+000  2.2233823585330857E+001
       H  9.5793467052219352E+000 -2.6099822524384520E-002 -3.5310604142751574E+000
       H  1.0782223356899404E+001 -7.3127069857911431E-001 -4.2607445118166183E+000
       O  1.0181068743924428E+001 -7.1464978677240421E-001 -3.4079160436511593E+000
       H  8.8115812583467417E+000 -5.6978346659705679E+000 -3.3229988706800642E+000
       H  7.4277120925365665E+000 -6.1309239093213428E+000 -4.0375364011260038E+000
       O  8.3560047840158909E+000 -5.7536612671592442E+000 -4.1523280768467492E+000
       H  3.4920380986189137E+001  1.6562257278855039E+001  1.6529514323756562E+001
       H  3.3522329690856061E+001  1.6700909751234384E+001  1.5861655826536744E+001
       O  3.3903709604101437E+001  1.6717019342694378E+001  1.6740904711001097E+001
       H  1.8333648765286242E+001  1.0802142181511064E+001  8.8602112615388187E+000
       H  1.6943206995679024E+001  1.0978966803263404E+001  8.1319008400366002E+000
       O  1.7541008199134623E+001  1.0362051790640530E+001  8.6134291086417125E+000
       H  8.6508422462181578E+000 -4.8959142412904306E+000  1.0143974185924579E+001
       H  8.2870560476297790E+000 -6.4394588377701991E+000  1.0211363481558337E+001
       O  8.8843534982145762E+000 -5.7589824414569240E+000  1.0450154943703330E+001
       H -6.6900339971054779E-001  4.2148455517886534E+000  6.2297804049238357E+000
       H -4.0445790422390193E-001  3.8757602525598887E+000  4.8214870560039946E+000
       O -4.1308610507657706E-001  3.4617701853875471E+000  5.6935173000375405E+000
       H  1.4929296137339790E+001 -1.3175093845076955E+001 -3.8161506826068998E+000
       H  1.3364292027038573E+001 -1.3033159139117833E+001 -3.4213569192640554E+000
       O  1.4060958441608012E+001 -1.2780278706180413E+001 -4.0402099354477787E+000
       H  2.1518218715513601E+001 -1.1577347447791844E+000 -1.3164819351063900E-001
       H  2.0906034077907425E+001 -1.8400548810904522E+000 -1.2533107680292721E+000