 # Version information for this restart file 
 # current date 2025-03-29 18:55:56.672
 # current working dir /ccc/scratch/cont003/gen2309/sicilana/NPT/128_H2O_4_NaCl_10_wt_673K_1000bar/BATCH_10_MD_T_673_P_1000_steps_1000_dt_0.5_NH2O_128_NaCl_4_abc_17.19_17.19_17.19_wt_9.20
 # Program compiled at                                       2024-10-31 15:04:21
 # Program compiled on                                                 topaze131
 # Program compiled for                                                   x86_64
 # Source code revision number                                                  
 &GLOBAL
   PRINT_LEVEL LOW
   PROJECT_NAME "brines"
   RUN_TYPE MD
   FLUSH_SHOULD_FLUSH T
 &END GLOBAL
 &MOTION
   &MD
     ENSEMBLE NPT_I
     STEPS 1000
     TIMESTEP  4.9999999999999994E-001
     STEP_START_VAL 25600
     TIME_START_VAL  1.2800000000007190E+004
     ECONS_START_VAL -2.4590398713531335E+003
     TEMPERATURE  6.7300000000000011E+002
     &BAROSTAT
       PRESSURE  1.0000000000000000E+003
       TIMECON  9.9999999999999986E+001
       &VELOCITY
           6.0779215625610712E-006
       &END VELOCITY
       &MASS
           4.2836593343398705E+007
       &END MASS
       &THERMOSTAT
         TYPE CSVR
         &CSVR
           TIMECON  4.8377686530095694E+001
           &THERMOSTAT_ENERGY
              -1.4159382371780208E-003
           &END THERMOSTAT_ENERGY
           &RNG_INIT
 Wiener process for Thermostat # 1        1 F T F  -2.0314608120251151E-01         161186908.0        1306855465.0         362187083.0        1814762770.0        3625265307.0        3709151676.0             12345.0             12345.0             12345.0             12345.0             12345.0             12345.0             12345.0             12345.0             12345.0             12345.0             12345.0             12345.0
           &END RNG_INIT
         &END CSVR
       &END THERMOSTAT
     &END BAROSTAT
     &THERMOSTAT
       TYPE CSVR
       &CSVR
         TIMECON  4.9999999999999994E+002
         &THERMOSTAT_ENERGY
            -7.5334833940030310E-001
         &END THERMOSTAT_ENERGY
         &RNG_INIT
 Wiener process for Thermostat # 1        1 F T F   1.2323923707680453E+00        3143630235.0        2728239925.0        3942501128.0         562101660.0        3462559857.0         250455403.0             12345.0             12345.0             12345.0             12345.0             12345.0             12345.0             12345.0             12345.0             12345.0             12345.0             12345.0             12345.0
         &END RNG_INIT
       &END CSVR
     &END THERMOSTAT
     &AVERAGES T
       &RESTART_AVERAGES
         ITIMES_START 1
         AVECPU  2.2880699062128425E+001
         AVEHUGONIOT  0.0000000000000000E+000
         AVETEMP_BARO  3.0178799881795203E+002
         AVEPOT -2.4597098735240052E+003
         AVEKIN  1.2248059935417914E+000
         AVETEMP  6.5944191195238545E+002
         AVEKIN_QM  0.0000000000000000E+000
         AVETEMP_QM  0.0000000000000000E+000
         AVEVOL  3.8344937465373849E+004
         AVECELL_A  3.3648542510688422E+001
         AVECELL_B  3.3648542510688422E+001
         AVECELL_C  3.3648542510688422E+001
         AVEALPHA  9.0000000000000000E+001
         AVEBETA  9.0000000000000000E+001
         AVEGAMMA  9.0000000000000000E+001
         AVE_ECONS -1.2455140388993875E+002
         AVE_PRESS  3.7503618752257034E+002
         AVE_PXX  3.4298385596404313E+002
       &END RESTART_AVERAGES
     &END AVERAGES
   &END MD
   &PRINT
     &TRAJECTORY SILENT
       FILENAME =brines-1.xyz
       &EACH
         MD 1
       &END EACH
     &END TRAJECTORY
     &CELL SILENT
       FILENAME =brines-1.cell_xyz
       &EACH
         MD 1
       &END EACH
     &END CELL
     &VELOCITIES SILENT
       FILENAME =brines-1.vel
       &EACH
         MD 1
       &END EACH
     &END VELOCITIES
     &FORCES SILENT
       FILENAME =brines-1.force
       &EACH
         MD 1
       &END EACH
     &END FORCES
     &STRESS SILENT
       FILENAME =brines-1.stress
       &EACH
         MD 1
       &END EACH
     &END STRESS
     &RESTART SILENT
       FILENAME =brines-1.restart
       &EACH
         MD 1
       &END EACH
     &END RESTART
     &RESTART_HISTORY SILENT
       &EACH
         MD 50
       &END EACH
     &END RESTART_HISTORY
   &END PRINT
 &END MOTION
 &FORCE_EVAL
   METHOD QS
   STRESS_TENSOR ANALYTICAL
   &DFT
     BASIS_SET_FILE_NAME /ccc/work/cont003/gen2309/sicilana/DATA_CP2K/GTH_BASIS_SETS
     POTENTIAL_FILE_NAME /ccc/work/cont003/gen2309/sicilana/DATA_CP2K/GTH_POTENTIALS
     &SCF
       MAX_SCF 50
       EPS_SCF  9.9999999999999995E-008
       &OT T
         MINIMIZER DIIS
         PRECONDITIONER FULL_SINGLE_INVERSE
       &END OT
       &OUTER_SCF T
         EPS_SCF  9.9999999999999995E-008
         MAX_SCF 50
       &END OUTER_SCF
     &END SCF
     &QS
       EPS_DEFAULT  1.0000000000000000E-014
       EPSFIT  1.0000000000000000E-004
       EPSISO  9.9999999999999998E-013
       EPSRHO0  9.9999999999999995E-007
       QUADRATURE GC_LOG
       EXTRAPOLATION ASPC
       METHOD GAPW
     &END QS
     &MGRID
       NGRIDS 4
       CUTOFF  5.0000000000000000E+002
       REL_CUTOFF  6.0000000000000000E+001
     &END MGRID
     &XC
       DENSITY_CUTOFF  1.0000000000000000E-010
       GRADIENT_CUTOFF  1.0000000000000000E-010
       TAU_CUTOFF  1.0000000000000000E-010
       &XC_FUNCTIONAL NO_SHORTCUT
         &PBE T
           PARAMETRIZATION REVPBE
         &END PBE
       &END XC_FUNCTIONAL
       &VDW_POTENTIAL
         POTENTIAL_TYPE PAIR_POTENTIAL
         &PAIR_POTENTIAL
           TYPE DFTD3
           PARAMETER_FILE_NAME /ccc/work/cont003/gen2309/sicilana/DATA_CP2K/dftd3.dat
           REFERENCE_FUNCTIONAL "PBE"
           CALCULATE_C9_TERM T
           REFERENCE_C9_TERM T
           VERBOSE_OUTPUT T
           D3_EXCLUDE_KIND 3
         &END PAIR_POTENTIAL
       &END VDW_POTENTIAL
     &END XC
     &REAL_TIME_PROPAGATION
       INITIAL_WFN RT_RESTART
     &END REAL_TIME_PROPAGATION
     &PRINT
       &MO_CUBES SILENT
         WRITE_CUBE F
         NLUMO 10
         NHOMO 2
         &EACH
           MD 200
         &END EACH
       &END MO_CUBES
     &END PRINT
   &END DFT
   &SUBSYS
     &CELL
       A  1.9094016762535091E+001  0.0000000000000000E+000  0.0000000000000000E+000
       B  0.0000000000000000E+000  1.9094016762535091E+001  0.0000000000000000E+000
       C  0.0000000000000000E+000  0.0000000000000000E+000  1.9094016762535091E+001
       MULTIPLE_UNIT_CELL 1 1 1
     &END CELL
     &COORD
       H  9.9897282708283797E+000  2.3531280300229689E+001  3.9829970219054850E-001
       H  8.8563066255254270E+000  2.2784322183663775E+001  1.2479327453709341E+000
       O  9.7550519783395817E+000  2.3151354104399964E+001  1.2540073424361995E+000
       H  7.9638772552689208E+000 -7.1228792983492699E+000  2.1304344241599553E+000
       H  9.0683030692241164E+000 -8.1120572011820595E+000  1.6032701712449373E+000
       O  8.9505079959159968E+000 -7.2623032341971339E+000  2.0404991787605860E+000
       H -1.0587081501854222E+001  4.7716478307262399E+001  4.8201642925453626E+001
       H -1.0587339444357701E+001  4.8986767499785337E+001  4.7291263722822393E+001
       O -1.0672638918629968E+001  4.8069160881230054E+001  4.7283622180814298E+001
       H  9.0433881713592541E+000  2.2664806401127397E+001  2.6183175366219675E+001
       H  7.9264052490479848E+000  2.3600936366281381E+001  2.6329213557023785E+001
       O  8.7990476555909698E+000  2.3432306539413521E+001  2.6684807517049126E+001
       H -8.3569007487966793E+000  6.0043397886765506E+000  7.5196148899512112E+000
       H -7.0541236868066788E+000  5.8950854096374457E+000  8.3532840159900381E+000
       O -7.4933290113905411E+000  6.3897129259228604E+000  7.6221858779355705E+000
       H  3.4178026798191198E+001  2.6661430952697053E+001 -7.1237876850613686E+000
       H  3.2780594514600018E+001  2.7338917126902953E+001 -7.5370189644138152E+000
       O  3.3391250677093971E+001  2.7214634898788258E+001 -6.7623040147435907E+000
       H -5.1043255814651918E+000  4.4188418759736994E+000  8.0777109160322951E+000
       H -5.2001235979961784E+000  4.7629206220057396E+000  9.6301406002377288E+000
       O -5.3501699097382929E+000  4.0163274492554946E+000  8.9328087267668206E+000
       H  2.5539642863795233E+001  2.9780039143983386E+000  1.4379533289832764E+000
       H  2.5514071457035591E+001  4.2113843258742918E+000  2.7252940235349093E-001
       O  2.5928415125211615E+001  3.4158540826970678E+000  6.4247297439290618E-001
       H  2.1418719397896979E+001  1.4344646981854240E+001  1.4822960107296604E+001
       H  2.1973420653904846E+001  1.3406902590992965E+001  1.3487880095389229E+001
       O  2.2192584363138568E+001  1.3978767908238511E+001  1.4174133356102894E+001
       H  2.3489126388461550E+001  5.1937614511079533E-002  2.1708476251676132E+001
       H  2.3714974080760594E+001 -1.4630723519462070E+000  2.1043547423407311E+001
       O  2.3309747494144940E+001 -5.5585493412210463E-001  2.0845928931877850E+001
       H  9.1070184947329818E+000  2.0809085034629410E-001 -7.2798283579630283E+000
       H  8.3171115300231087E+000 -1.2517303635525814E+000 -7.1470657734072649E+000
       O  8.8238761184549688E+000 -6.6343756423293321E-001 -7.7636215806096818E+000
       H  1.2617369326961315E+001  2.5081880194983661E+000  2.0652792988902064E+001
       H  1.1215694385031307E+001  3.3422597151036419E+000  2.0912758709462960E+001
       O  1.2172798874367231E+001  3.2333252315732799E+000  2.1218111081796287E+001
       H  1.6605670809742875E+001  1.5175593425947659E+001  4.5625085097732958E+000
       H  1.6950989818533980E+001  1.6519473652535286E+001  5.3002975969830777E+000
       O  1.6268913435929242E+001  1.5798439530008370E+001  5.2459394286986196E+000
       H  5.2271622829502373E+000 -1.1256155204644255E+001 -7.3471950243477380E-001
       H  5.3488614551947258E+000 -1.0022600812597776E+001 -1.6766891774107497E+000
       O  5.7541575970769001E+000 -1.0455858673298145E+001 -8.4871149834404225E-001
       H  3.1117075098344248E+001  3.4351784706353826E+001 -1.6532961572572089E-001
       H  3.1588587928386229E+001  3.3134400456688113E+001 -9.0130336815261480E-001
       O  3.0926194704085265E+001  3.3398572553306202E+001 -2.9229469026028476E-001
       H  1.4094147541292660E+001  9.1497695872645346E-001 -9.6788756958697792E+000
       H  1.3366649318627553E+001  2.2240096279819026E+000 -9.7074909930057025E+000
       O  1.3134453721447237E+001  1.2824643628757642E+000 -9.6548477915335447E+000
       H  2.0406295833386910E+001  8.7975811231006729E-001  5.8956889437752027E+000
       H  2.1769731734570108E+001  1.0445434644549523E+000  5.1435781381816579E+000
       O  2.1179073983492987E+001  1.4705566796172136E+000  5.7704735737979789E+000
       H  8.2011698916933913E+000 -2.4007465138477939E+000  1.6978672874379416E+001
       H  9.0004571135821969E+000 -2.7302166528589855E+000  1.8244378933791687E+001
       O  8.0813251715053696E+000 -2.8209346276609759E+000  1.7914836097984658E+001
       H  4.1679172624734706E+000  1.7824543245197802E+001  8.4841372656332510E+000
       H  5.7358076625119798E+000  1.7210689393356951E+001  8.5006646974582498E+000
       O  4.7890485560863043E+000  1.7090372079402535E+001  8.1536932134382951E+000
       H  2.0797576149311944E+001  2.7103797289444817E+001  4.5465830054336172E+000
       H  2.1260294870906268E+001  2.5777325010268733E+001  4.2059524017110288E+000
       O  2.1056661906844159E+001  2.6643132489295507E+001  3.7823901674576246E+000
       H  1.6176483902672693E+001  8.8162291647337501E+000  2.0697619437391925E+001
       H  1.6086270751819431E+001  1.0296502864410442E+001  2.0785070685703978E+001
       O  1.6332882859867198E+001  9.4731238945271627E+000  2.1316293995894565E+001
       H  9.2989959132809226E+000 -1.2583335513111093E+001  1.7224819444845906E+001
       H  8.0825799974177350E+000 -1.3471295900521781E+001  1.6957436281594227E+001
       O  8.8933707867200855E+000 -1.3393309518550819E+001  1.7467190705056858E+001
       H  3.0219188849114264E+001  1.2080174940660312E+001  2.4215081056137507E+001
       H  2.9389458833642301E+001  1.2912432257813501E+001  2.3151063979024133E+001
       O  2.9310740895552854E+001  1.2431946153611317E+001  2.4027120842568380E+001
       H -1.5183373798431509E+001  8.6670519654476994E+000  1.4250954807522360E+001
       H -1.6547725746173978E+001  8.2684321400278211E+000  1.4310456794295748E+001
       O -1.5730763668199961E+001  7.9229452031050753E+000  1.3986418596794676E+001
       H  9.6248312749955989E-001  5.6275788323258631E+000  7.4248447059857874E+000
       H  2.3806270857631859E+000  5.9021815633772121E+000  7.8136787077520022E+000
       O  1.8706636906933112E+000  5.2603561207381064E+000  7.2936786842660410E+000
       H -8.3291297626642447E+000 -1.5894259665373855E+001  1.6514815887294127E+001
       H -9.5240218021932233E+000 -1.6240820100827190E+001  1.7308171896286446E+001
       O -9.3080156941405754E+000 -1.6052782153684447E+001  1.6369724894610137E+001
       H  2.6300149913584157E+001  1.0233254534348928E+001 -1.0686763464431062E+000
       H  2.6506022166123696E+001  1.1773878508404895E+001 -1.5065502627390341E+000
       O  2.6731009033878163E+001  1.0854550674986154E+001 -1.7155769585833023E+000
       H  1.3297488455725084E+001 -2.8382294988877139E+000  2.6247449878398804E+001
       H  1.2844086960252652E+001 -2.3834384248258798E+000  2.4836537257500119E+001
       O  1.2788100496320059E+001 -3.1997169850631906E+000  2.5438917257213383E+001
       H -6.5875178419183493E+000  1.0342724180691645E+001  4.8465968646351089E-002
       H -6.8205696224419752E+000  1.0040216094116142E+001 -1.5169229823352421E+000
       O -6.9746375676323051E+000  1.0695668820592482E+001 -8.0142053316142070E-001
       H  4.8457929990905164E+000  6.6958055122995956E+000  2.0348175546069052E+000
       H  3.4694820261795809E+000  5.9064174627898147E+000  1.8415725316737783E+000
       O  4.2219148101421746E+000  6.3608934068046530E+000  1.3232249086102466E+000
       H  6.3364309755365789E-001 -1.9522856763988212E+000  4.4189751078631430E+000
       H  1.0170755409273409E+000 -1.3555123836398166E+000  3.0193822089623756E+000
       O  1.3172109823267326E+000 -1.9592440118240229E+000  3.6418837419489378E+000
       H -3.5433530114119369E+000  2.2449357265308276E+001 -4.3426321666862986E+000
       H -2.6685567568716690E+000  2.1642270387333358E+001 -3.2491721582942201E+000
       O -3.5638187889316373E+000  2.2043744102008482E+001 -3.4231134547033459E+000
       H  2.2022196291470216E+001  2.8805159083364209E+001  1.0741559437428917E+001
       H  2.2490603860132143E+001  2.7467389348892951E+001  1.0353763721975566E+001
       O  2.1714506670789383E+001  2.7950939042046443E+001  1.0338935747553633E+001
       H  2.0082567243349811E+000 -1.9561439482815068E+001 -6.6337716306004841E+000
       H  1.3538344735639463E+000 -1.8467008022254671E+001 -7.5626103087381624E+000
       O  1.9930347343965920E+000 -1.8650551893504705E+001 -6.8494570738335341E+000
       H  9.7095227380847078E+000  3.6321960609333273E+000  1.0481011458232048E+001
       H  8.8505286030210399E+000  4.6374419010619832E+000  9.5482063221725912E+000
       O  9.6098217946955149E+000  4.6190266657236121E+000  1.0186673459893898E+001
       H  1.0748717315677379E+001  1.9702298012407816E+001 -1.9812138081370318E+001
       H  1.0837207215441429E+001  1.8706583321024709E+001 -1.8430484853070656E+001
       O  1.0645192978840317E+001  1.9556067783748318E+001 -1.8830253414516523E+001
       H  1.5333293707719873E+001 -7.3138345023654487E+000 -1.4916922968511868E+001
       H  1.5398657191850978E+001 -5.7757576555836314E+000 -1.5169999470863042E+001
       O  1.5026952654051291E+001 -6.5814227731782049E+000 -1.5442926730700345E+001
       H  1.3671457546823518E+001 -2.5023160262215667E+000  2.9388106756340814E+001
       H  1.4776973438024909E+001 -3.1018843386453940E+000  2.8462314331092173E+001
       O  1.3759294466072109E+001 -3.0898804134378475E+000  2.8618372121961034E+001
       H  2.2758741557961816E+001  3.6340347089299172E+000  1.5665096137023198E+001
       H  2.1852638521034336E+001  3.8917142895863757E+000  1.6844360037038079E+001
       O  2.1984199805532320E+001  4.0932882042816896E+000  1.5907397924585030E+001
       H  1.4165396305463622E+001  2.1722483419346407E+001  1.1466023242807731E+001
       H  1.4111626544936822E+001  2.3087003179238060E+001  1.2072353691188702E+001
       O  1.4642235968405815E+001  2.2570160672638881E+001  1.1469502789229754E+001
       H  3.2509089405810045E+000  4.4822569345804713E+000  5.3822090083620671E+000
       H  2.6057778884958189E+000  4.1027540501872588E+000  4.2423797061197819E+000
       O  3.3981752431449235E+000  4.6303570097679492E+000  4.4899459080238531E+000
       H  1.7042280399810121E+001  2.2761666864519558E+001 -7.5635095974817288E+000
       H  1.7814348160100757E+001  2.1582519586394803E+001 -7.0906233921296646E+000
       O  1.7860313950834257E+001  2.2248463029842817E+001 -7.7420532263762318E+000
       H  3.4136630077226404E+000  3.5255068824303784E+001  1.4445929992189456E+001
       H  4.8006729711754321E+000  3.5779165466012515E+001  1.4468665989197490E+001
       O  3.8746940258560372E+000  3.5904482560450020E+001  1.4916330852767929E+001
       H  1.1933913132503152E+001  1.0483730587446587E+000  1.2678676665134043E+001
       H  1.1338843737910194E+001  2.0501318701316267E+000  1.1744217714541858E+001
       O  1.1031981098953644E+001  1.4007417246506735E+000  1.2427387658040312E+001
       H  1.3031033389757516E+001  1.7727388609297630E+001 -1.8766177487217000E+001
       H  1.3370789628136048E+001  1.7371744178712600E+001 -1.7326074921280590E+001
       O  1.2659908837454186E+001  1.7315196524055242E+001 -1.8000986687041959E+001
       H -8.9496836742632304E+000  1.4291208257708250E+001  5.6628062275236672E+000
       H -8.2085173708196031E+000  1.5321138569634464E+001  6.5071053133847574E+000
       O -9.0957997508413708E+000  1.5199519400408509E+001  6.1404876759907747E+000
       H  9.3077698084660625E+000  3.4845905423071216E+001  1.4976871207432593E+001
       H  9.5466374401198451E+000  3.6214444056933161E+001  1.4358957099047808E+001
       O  9.4856555286476532E+000  3.5800749505739809E+001  1.5257557551118570E+001
       H  6.1850051867392599E+000  7.2480739364867075E+000  1.4675265678644033E+001
       H  5.0344619266358412E+000  6.3046736354927910E+000  1.5323740345851256E+001
       O  5.9783820216331911E+000  6.7050595806939688E+000  1.5463171115105268E+001
       H -9.6087057620858896E-001  1.9664217881634031E+001 -5.7741808503959580E-001
       H -1.5164117333694087E+000  1.9268169253703959E+001  9.7235481606397001E-001
       O -1.0326931939022170E+000  1.9842848108067471E+001  3.6751002992234438E-001
       H -4.1785462525531152E+000  1.7393604467229185E+001  2.3941185121502805E+001
       H -5.1163374195494749E+000  1.8391625763263121E+001  2.3100297985165518E+001
       O -5.0915893692837297E+000  1.7472346842669484E+001  2.3548175021300377E+001
       H  1.8579643254935888E+001 -4.0273734155411145E-001  6.2505892561326579E+000
       H  1.9218267183259037E+001 -1.7490676316005473E+000  6.4683164587308379E+000
       O  1.8762717517876652E+001 -1.2664498996516957E+000  5.7006427596224647E+000
       H -3.2624523548979248E+001  7.3515548930141987E+000  2.3467317047291733E+001
       H -3.3068107056736565E+001  5.8842585385959918E+000  2.3228392845343272E+001
       O -3.2439288638116523E+001  6.5359179894456165E+000  2.2915969927228968E+001
       H  1.1143901837595314E+001  8.3814928136541393E+000  1.3276789786789227E+001
       H  1.0134973989501237E+001  9.3589535074218730E+000  1.3935538200908679E+001
       O  1.0305242373719533E+001  8.8940112307405474E+000  1.3124866543979282E+001
       H  1.7681951371916806E+001 -1.7411125153963336E+001  2.5705492386568633E+001
       H  1.7431004734193866E+001 -1.8028586197701493E+001  2.7042141772106788E+001
       O  1.8070319719961024E+001 -1.8019789741841510E+001  2.6353676441558040E+001
       H -4.4170787267563655E-001  1.5555001810734080E+001 -5.4635816146830321E+000
       H -9.0667683154362789E-003  1.6938298051151310E+001 -5.0494894475014842E+000
       O  2.2611853541520004E-002  1.6325558170700702E+001 -5.7973811498878955E+000
       H  1.8829153744828854E+001  1.0817428043062717E+001  1.4752754285501203E+001
       H  1.9703786378810602E+001  1.1225976105364644E+001  1.5804147241346364E+001
       O  1.8789647802014791E+001  1.0995390623646825E+001  1.5762299619999784E+001
       H  2.6495037661738929E+000  9.9147869296324114E+000  2.6960294295140539E+001
       H  3.7390342939293912E+000  8.9872968743639738E+000  2.6512201444435032E+001
       O  3.1932706822894530E+000  9.5959165495755681E+000  2.6138447331256792E+001
       H  2.7458990913880630E+000 -6.6109077372227594E+000 -1.3175988135700671E+000
       H  2.0846430769648401E+000 -7.5069814919910449E+000 -5.9827066120448036E-001
       O  2.0422677722112832E+000 -7.2311425436860857E+000 -1.5385409871897378E+000
       H  2.5150957001705314E+000  8.4301309192618721E+000  1.7393689211995873E+001
       H  2.3300447254953767E+000  9.8985714960120621E+000  1.6988229356567121E+001
       O  2.7665405396157299E+000  9.0506868806035516E+000  1.6786684386799095E+001
       H  7.8777399126590826E+000  2.3688085584879946E+001  3.1512370166155844E+001
       H  8.2765949797255089E+000  2.3337386550240822E+001  3.2955852235627120E+001
       O  7.7280360679159816E+000  2.3012200534168159E+001  3.2192469449589481E+001
       H  8.3076141086611752E+000  3.3371587794798032E+001 -1.2134049549948500E+000
       H  9.5890777184016258E+000  3.2591385385434528E+001 -1.2748321994474705E+000
       O  8.7315778180222807E+000  3.2651048981630233E+001 -1.7124683504141187E+000
       H  1.9024949969244465E-001  1.0321571651489208E+001  1.2715288593630651E+001
       H  4.1535930329138332E-001  1.1805778032534800E+001  1.2052932447522563E+001
       O  4.5332761446056968E-001  1.1266948779502943E+001  1.2915444599050943E+001
       H  1.4625108014305416E+001  1.1341780202897244E+001 -1.8175150182253756E+001
       H  1.5346886302024366E+001  1.0982265732933815E+001 -1.9484537290979002E+001
       O  1.5527795600670592E+001  1.1457402711619967E+001 -1.8674048295214813E+001
       H  1.2965603135970630E+001 -1.3356795332012281E+000  1.6342715402063227E+001
       H  1.1469984049560322E+001 -2.1115307659724305E+000  1.6318962895712296E+001
       O  1.2088553886653056E+001 -1.4470148575854034E+000  1.6831340541206142E+001
       H  1.3946229786651696E+001  5.7857181516421798E+000  2.0899947631653351E+001
       H  1.4597108373103223E+001  7.0700711693052805E+000  2.1300098262901415E+001
       O  1.4698762383404606E+001  6.4059193849174640E+000  2.0704574066930704E+001
       H  2.9803927593257718E+001 -2.0292191485634214E+000  2.3772500951638374E+001
       H  3.0604728137279068E+001 -7.4291249074972820E-001  2.3132581699721264E+001
       O  2.9771674466094471E+001 -1.2168591142973790E+000  2.3153742455224169E+001
       H  2.0467432518768359E+001  1.6012294737814525E+001  1.6374683972887116E+001
       H  2.1873366847512223E+001  1.5640690911275149E+001  1.6740101764297858E+001
       O  2.1049320943891228E+001  1.5256747337398295E+001  1.6396424270676320E+001
       H  1.0773408356983049E+001  4.5120483994815075E+000 -5.6389053113001397E+000
       H  1.0284201809379850E+001  5.2038901589030537E+000 -6.9911630470354362E+000
       O  1.0315790413689962E+001  5.3328404817817612E+000 -6.0304609390332589E+000
       H -2.4200774091858617E+000  1.2052838233508535E+001 -5.0570909984307333E+000
       H -2.5134743778742639E+000  1.2078404912996115E+001 -6.5938436759728178E+000
       O -2.9528737624596983E+000  1.2325981392782243E+001 -5.8246617175367570E+000
       H  9.0202522579261259E+000  7.5427259678973249E+000  1.1992620492277332E+001
       H  9.0894495719027741E+000  6.4343655069505665E+000  1.0884478588696426E+001
       O  8.5374140117768231E+000  7.1721306590174665E+000  1.1172907278091483E+001
       H -1.4676959767984837E+001 -3.6767693235971590E+000  3.6116599705912189E+000
       H -1.6181135866158172E+001 -2.7920680115869554E+000  3.5317943834142551E+000
       O -1.5662012934948660E+001 -3.7229749997692632E+000  3.5388969091866422E+000
       H  9.4059529103808848E-001  8.5623780068496771E+000 -7.4417018618921702E+000
       H  4.5852951722516666E-001  7.7561520837132782E+000 -6.2108706207537825E+000
       O  2.3653964505763864E-001  8.4243353778302748E+000 -6.7797085039412002E+000
       H  1.3288206644702798E+001  9.4055686961875367E+000  7.1352975192649257E+000
       H  1.3979298273045263E+001  9.9349401735984681E+000  8.4234041123584493E+000
       O  1.4244254422076409E+001  9.5068785571204746E+000  7.5564408868561408E+000
       H  3.5492206147087635E+000  1.0525747134690803E+001  1.3444339060724666E+000
       H  2.4107843686080059E+000  1.1725325138797590E+001  1.3246346395934163E+000
       O  3.3926349567226950E+000  1.1573563335305986E+001  1.3383424572677096E+000
       H  1.3317997972658308E+001  1.4255156284770688E+001 -6.0234507034171649E+000
       H  1.4713022469674085E+001  1.3813312407164574E+001 -6.1512418193589342E+000
       O  1.4133793406201276E+001  1.4623471399911228E+001 -6.3147392936145232E+000
       H  1.3228821212369066E+001  1.8409318486555595E+001  1.3789450199965660E+001
       H  1.4042175215564002E+001  1.9530218868150129E+001  1.4479986835920382E+001
       O  1.3478221815962279E+001  1.9419510657693582E+001  1.3692260349036268E+001
       H  6.1027574820976671E+000 -5.5044763984050551E+000 -1.3122773269640495E+001
       H  5.6747154271705647E+000 -5.6537985478003616E+000 -1.1636811241793218E+001
       O  5.6071455218933250E+000 -5.0493964440304939E+000 -1.2416572049001628E+001
       H  8.7736758497466756E+000  1.0499433032312124E+001  5.1947214206117893E+000
       H  8.4355145186791809E+000  1.0585166528570607E+001  3.8550688849650396E+000
       O  7.9411355585069092E+000  1.0316258994814222E+001  4.6824680080762686E+000
       H  1.1645757506448088E+001  8.2768736645553957E+000  9.8110840071534415E+000
       H  1.1830639108087144E+001  9.5460248830902525E+000  1.0521347170052907E+001
       O  1.2303486769930965E+001  8.6819806696088833E+000  1.0326861621106737E+001
       H  6.7461184330705848E-001  5.4011470001808844E-002 -9.6965837715113175E+000
       H  2.0048052232488500E-001  1.6360012209766039E+000 -9.1653607555777885E+000
       O  1.7395590734542086E-002  6.1145185317570117E-001 -9.1217302682199612E+000
       H  2.1491537308251023E+000  1.4224023025797653E+001  4.7816881229033008E+000
       H  1.9957038193060832E+000  1.2945896688118628E+001  5.5512944281418966E+000
       O  1.5499814086525803E+000  1.3765145634322378E+001  5.4197060681521032E+000
       H -6.8507834928853732E+000 -6.8555301594028082E+000  1.6457463717260193E+001
       H -5.7792232636852781E+000 -6.3545840910731508E+000  1.5465975230066704E+001
       O -6.5431202716576857E+000 -6.0419520031756271E+000  1.5999469442272817E+001
       H  1.8371934643218946E+001  2.2952515174553225E+000  1.4720579862790190E+001
       H  1.8196459372045950E+001  8.3141224183992612E-001  1.4430426380692063E+001
       O  1.8468219649565132E+001  1.6638553614361029E+000  1.3983261289551876E+001
       H  1.7015613160214137E+001 -4.8759405602091261E+000  2.9145819640295155E+001
       H  1.5758883301298400E+001 -4.1772354708481840E+000  2.9814493238687511E+001
       O  1.6587780720341406E+001 -3.9412722064695394E+000  2.9295426023488776E+001
       H  1.9156246351828823E+001  1.1165948769049296E+000  2.0819461098239298E+001
       H  1.9249667759659246E+001  1.0216567578926290E+000  2.2449547305645812E+001
       O  1.9737961139637651E+001  1.1704549402347133E+000  2.1589801066759190E+001
       H  9.4727290811860865E+000  5.6166077700593808E-001 -4.0592248330459100E+000
       H  9.7870013168178129E+000  1.0334243809861163E+000 -5.5843222739135783E+000
       O  9.1749976546531240E+000  4.1773159113494562E-001 -5.0421871337952657E+000
       H  8.2352534462077731E+000 -6.2227494196446509E+000 -4.0580170280344969E+000
       H  7.8093654664311565E+000 -6.7297840123497128E+000 -5.3250397833203191E+000
       O  8.5979011282914239E+000 -6.7851888935192628E+000 -4.7609067575880015E+000
       H  3.5273872203511665E+001  1.6890314593619941E+001  1.5177037428568227E+001
       H  3.6505451871416902E+001  1.7104615101663619E+001  1.6044536213122822E+001
       O  3.5938238154392302E+001  1.6379006439029890E+001  1.5720665461529306E+001
       H  1.8739905375711977E+001  1.0131134915083573E+001  6.5917561395738762E+000
       H  1.9309578790188933E+001  1.0650831475106830E+001  7.8872676634437111E+000
       O  1.8725490253157357E+001  9.9979953118192260E+000  7.5616110726676125E+000
       H  8.7150315518126007E+000 -5.5836424477695985E+000  8.2884690829635232E+000
       H  8.6438430497852643E+000 -5.4447247410590789E+000  9.6569290199064408E+000
       O  9.0977281261989518E+000 -6.0262112734202846E+000  9.0304566592684576E+000
       H -2.2700037503448995E+000  4.5037196904429022E+000  5.9754087794766404E+000
       H -1.7316124414835581E+000  3.8299433131302765E+000  4.6770404940905115E+000
       O -2.5458791044601057E+000  4.0427020129349707E+000  5.1372857866661263E+000
       H  1.3001074867888205E+001 -1.3041061622803788E+001 -4.8454741573778799E+000
       H  1.3971625572577278E+001 -1.2784640182796227E+001 -3.9943316359665464E+000
       O  1.3150075120129962E+001 -1.3342768744249568E+001 -3.9317882269979361E+000
       H  2.1604855130629712E+001 -1.6606297392785365E+000  4.2610371974842332E-001
       H  2.0088040252696175E+001 -1.8045051518401527E+000 -3.2548538010181005E-001