 # Version information for this restart file 
 # current date 2025-03-29 20:28:24.716
 # current working dir /ccc/scratch/cont003/gen2309/sicilana/NPT/128_H2O_4_NaCl_10_wt_673K_1000bar/BATCH_10_MD_T_673_P_1000_steps_1000_dt_0.5_NH2O_128_NaCl_4_abc_17.19_17.19_17.19_wt_9.20
 # Program compiled at                                       2024-10-31 15:04:21
 # Program compiled on                                                 topaze131
 # Program compiled for                                                   x86_64
 # Source code revision number                                                  
 &GLOBAL
   PRINT_LEVEL LOW
   PROJECT_NAME "brines"
   RUN_TYPE MD
   FLUSH_SHOULD_FLUSH T
 &END GLOBAL
 &MOTION
   &MD
     ENSEMBLE NPT_I
     STEPS 1000
     TIMESTEP  4.9999999999999994E-001
     STEP_START_VAL 25800
     TIME_START_VAL  1.2900000000007036E+004
     ECONS_START_VAL -2.4590398713531335E+003
     TEMPERATURE  6.7300000000000011E+002
     &BAROSTAT
       PRESSURE  1.0000000000000000E+003
       TIMECON  9.9999999999999986E+001
       &VELOCITY
           5.0308282779974806E-006
       &END VELOCITY
       &MASS
           4.2836593343398705E+007
       &END MASS
       &THERMOSTAT
         TYPE CSVR
         &CSVR
           TIMECON  4.8377686530095694E+001
           &THERMOSTAT_ENERGY
              -5.5169616134558312E-004
           &END THERMOSTAT_ENERGY
           &RNG_INIT
 Wiener process for Thermostat # 1        1 F T F   4.1678037821923031E-02        2125947151.0         407530837.0        3025206679.0        4279194361.0        1920010719.0         630468401.0             12345.0             12345.0             12345.0             12345.0             12345.0             12345.0             12345.0             12345.0             12345.0             12345.0             12345.0             12345.0
           &END RNG_INIT
         &END CSVR
       &END THERMOSTAT
     &END BAROSTAT
     &THERMOSTAT
       TYPE CSVR
       &CSVR
         TIMECON  4.9999999999999994E+002
         &THERMOSTAT_ENERGY
            -8.0992646113261424E-001
         &END THERMOSTAT_ENERGY
         &RNG_INIT
 Wiener process for Thermostat # 1        1 F T F   1.3088127968329130E-01         332331982.0        3852878219.0         520154302.0        3871442068.0        1507917705.0         853295966.0             12345.0             12345.0             12345.0             12345.0             12345.0             12345.0             12345.0             12345.0             12345.0             12345.0             12345.0             12345.0
         &END RNG_INIT
       &END CSVR
     &END THERMOSTAT
     &AVERAGES T
       &RESTART_AVERAGES
         ITIMES_START 1
         AVECPU  2.2918370278228469E+001
         AVEHUGONIOT  0.0000000000000000E+000
         AVETEMP_BARO  3.0050677730503122E+002
         AVEPOT -2.4597121827446631E+003
         AVEKIN  1.2241484806136953E+000
         AVETEMP  6.5908790357495650E+002
         AVEKIN_QM  0.0000000000000000E+000
         AVETEMP_QM  0.0000000000000000E+000
         AVEVOL  3.8416185506784685E+004
         AVECELL_A  3.3668512315638544E+001
         AVECELL_B  3.3668512315638544E+001
         AVECELL_C  3.3668512315638544E+001
         AVEALPHA  9.0000000000000000E+001
         AVEBETA  9.0000000000000000E+001
         AVEGAMMA  9.0000000000000000E+001
         AVE_ECONS -1.2639466770679587E+002
         AVE_PRESS  3.7961805863553866E+002
         AVE_PXX  3.5054360238190714E+002
       &END RESTART_AVERAGES
     &END AVERAGES
   &END MD
   &PRINT
     &TRAJECTORY SILENT
       FILENAME =brines-1.xyz
       &EACH
         MD 1
       &END EACH
     &END TRAJECTORY
     &CELL SILENT
       FILENAME =brines-1.cell_xyz
       &EACH
         MD 1
       &END EACH
     &END CELL
     &VELOCITIES SILENT
       FILENAME =brines-1.vel
       &EACH
         MD 1
       &END EACH
     &END VELOCITIES
     &FORCES SILENT
       FILENAME =brines-1.force
       &EACH
         MD 1
       &END EACH
     &END FORCES
     &STRESS SILENT
       FILENAME =brines-1.stress
       &EACH
         MD 1
       &END EACH
     &END STRESS
     &RESTART SILENT
       FILENAME =brines-1.restart
       &EACH
         MD 1
       &END EACH
     &END RESTART
     &RESTART_HISTORY SILENT
       &EACH
         MD 50
       &END EACH
     &END RESTART_HISTORY
   &END PRINT
 &END MOTION
 &FORCE_EVAL
   METHOD QS
   STRESS_TENSOR ANALYTICAL
   &DFT
     BASIS_SET_FILE_NAME /ccc/work/cont003/gen2309/sicilana/DATA_CP2K/GTH_BASIS_SETS
     POTENTIAL_FILE_NAME /ccc/work/cont003/gen2309/sicilana/DATA_CP2K/GTH_POTENTIALS
     &SCF
       MAX_SCF 50
       EPS_SCF  9.9999999999999995E-008
       &OT T
         MINIMIZER DIIS
         PRECONDITIONER FULL_SINGLE_INVERSE
       &END OT
       &OUTER_SCF T
         EPS_SCF  9.9999999999999995E-008
         MAX_SCF 50
       &END OUTER_SCF
     &END SCF
     &QS
       EPS_DEFAULT  1.0000000000000000E-014
       EPSFIT  1.0000000000000000E-004
       EPSISO  9.9999999999999998E-013
       EPSRHO0  9.9999999999999995E-007
       QUADRATURE GC_LOG
       EXTRAPOLATION ASPC
       METHOD GAPW
     &END QS
     &MGRID
       NGRIDS 4
       CUTOFF  5.0000000000000000E+002
       REL_CUTOFF  6.0000000000000000E+001
     &END MGRID
     &XC
       DENSITY_CUTOFF  1.0000000000000000E-010
       GRADIENT_CUTOFF  1.0000000000000000E-010
       TAU_CUTOFF  1.0000000000000000E-010
       &XC_FUNCTIONAL NO_SHORTCUT
         &PBE T
           PARAMETRIZATION REVPBE
         &END PBE
       &END XC_FUNCTIONAL
       &VDW_POTENTIAL
         POTENTIAL_TYPE PAIR_POTENTIAL
         &PAIR_POTENTIAL
           TYPE DFTD3
           PARAMETER_FILE_NAME /ccc/work/cont003/gen2309/sicilana/DATA_CP2K/dftd3.dat
           REFERENCE_FUNCTIONAL "PBE"
           CALCULATE_C9_TERM T
           REFERENCE_C9_TERM T
           VERBOSE_OUTPUT T
           D3_EXCLUDE_KIND 3
         &END PAIR_POTENTIAL
       &END VDW_POTENTIAL
     &END XC
     &REAL_TIME_PROPAGATION
       INITIAL_WFN RT_RESTART
     &END REAL_TIME_PROPAGATION
     &PRINT
       &MO_CUBES SILENT
         WRITE_CUBE F
         NLUMO 10
         NHOMO 2
         &EACH
           MD 200
         &END EACH
       &END MO_CUBES
     &END PRINT
   &END DFT
   &SUBSYS
     &CELL
       A  1.9292829791272549E+001  0.0000000000000000E+000  0.0000000000000000E+000
       B  0.0000000000000000E+000  1.9292829791272549E+001  0.0000000000000000E+000
       C  0.0000000000000000E+000  0.0000000000000000E+000  1.9292829791272549E+001
       MULTIPLE_UNIT_CELL 1 1 1
     &END CELL
     &COORD
       H  9.8094959684848781E+000  2.2800943035017617E+001  8.5621989089955985E-001
       H  8.7088155718738012E+000  2.3688308931471852E+001  1.5932477600002712E+000
       O  9.5053687300857881E+000  2.3245633240942823E+001  1.6586517668918124E+000
       H  7.8718852370702148E+000 -7.0620555755827059E+000  1.9265878307862434E+000
       H  9.3964232031977399E+000 -7.5938214204942369E+000  1.6798582232219117E+000
       O  8.6086032734302336E+000 -7.7242579220307821E+000  2.1954141337753472E+000
       H -1.1209112921769840E+001  4.8477470852544400E+001  4.8649659746184206E+001
       H -1.0517306592679962E+001  4.9058078531298420E+001  4.7440081713743247E+001
       O -1.0528517229920810E+001  4.8282481817926460E+001  4.7988816588845246E+001
       H  8.2167016320549102E+000  2.3262485850215771E+001  2.6206074786314993E+001
       H  9.4193901985508948E+000  2.3857333490218675E+001  2.5595835192793906E+001
       O  9.1111127531349094E+000  2.3496925593148745E+001  2.6418842462735824E+001
       H -8.5022339319577895E+000  5.9710866927389672E+000  8.1779162602155697E+000
       H -6.9383050224519662E+000  5.9374440773260515E+000  8.5007528372121310E+000
       O -7.8280511995403552E+000  6.0134049694179526E+000  8.7950844624151898E+000
       H  3.3937171369483181E+001  2.7325213246751812E+001 -6.5342610068335913E+000
       H  3.2979867428309049E+001  2.8367673398648854E+001 -6.9796081693674408E+000
       O  3.3922628080059212E+001  2.8227787934250038E+001 -6.7113806108390737E+000
       H -4.5516958238598750E+000  5.2895693750460371E+000  8.2981121301681728E+000
       H -5.0052981825889651E+000  4.7485868632747330E+000  9.6783707490787343E+000
       O -5.3504952870103573E+000  4.8815595332022736E+000  8.7428297071653684E+000
       H  2.7057768303600756E+001  3.0011541937135009E+000  3.2849611682782104E-001
       H  2.5457769504137612E+001  3.5512706236332843E+000  4.5103077605365477E-001
       O  2.6089768600274503E+001  2.8001754410087099E+000  4.2392355501717499E-001
       H  2.2371706575225701E+001  1.3328862711812185E+001  1.4893222805732218E+001
       H  2.2475222558191465E+001  1.4008240419961863E+001  1.3461198571743484E+001
       O  2.2445314505682440E+001  1.4199449903408732E+001  1.4357094762628364E+001
       H  2.3209683579766850E+001 -6.1263751029093871E-001  2.1645182027316729E+001
       H  2.4565859184891419E+001 -1.2755952548631322E+000  2.1192136249971146E+001
       O  2.3986964844603794E+001 -4.8821611295436917E-001  2.0929528935745910E+001
       H  8.0270862725514576E+000  6.3564760682544089E-002 -9.0034453131182808E+000
       H  7.7425857113703147E+000  3.5538681556908913E-001 -7.4507363277134102E+000
       O  7.4510828146399559E+000 -1.8106020413051913E-001 -8.2129859011116189E+000
       H  1.2629919919039862E+001  2.9149132381727378E+000  2.1381193160436155E+001
       H  1.1333945979391871E+001  3.5225350973820664E+000  2.2023916976705905E+001
       O  1.2279917007587860E+001  3.4973416703070082E+000  2.2130219577975591E+001
       H  1.6668048240610791E+001  1.5113688572596516E+001  4.4223080237270791E+000
       H  1.7597010732697488E+001  1.6011355887733362E+001  5.3497602213539217E+000
       O  1.6778189743857098E+001  1.5446467136608954E+001  5.2645720552966662E+000
       H  5.3981776581620391E+000 -1.0512372136301019E+001 -7.3508722791467684E-001
       H  5.9098647332092629E+000 -1.1083889632566686E+001 -1.9962579534099139E+000
       O  6.2254900239886659E+000 -1.0506925990698829E+001 -1.1959929754508087E+000
       H  3.1830922367879108E+001  3.4968941480475628E+001 -3.4669610715455784E-001
       H  3.1103968549307531E+001  3.4148961863927191E+001 -1.4530270830794938E+000
       O  3.0956225209272240E+001  3.4465612121701454E+001 -5.3504964401226407E-001
       H  1.3848432726735460E+001  1.4860101068484852E+000 -1.0338146884744118E+001
       H  1.3495400395596690E+001  2.9171686270822170E+000 -1.0464647260911791E+001
       O  1.3102427565507044E+001  2.0848387495794332E+000 -1.0071124170241132E+001
       H  2.0034136640997552E+001  1.2968226631666913E+000  6.1288535995111761E+000
       H  2.1269216790386956E+001  1.1434701294556779E+000  7.1386633999162958E+000
       O  2.1036060151046360E+001  1.2263721166166650E+000  6.1737433576833149E+000
       H  9.2978579032436812E+000 -2.6547464114751254E+000  1.8357124351997971E+001
       H  8.0036674516809718E+000 -1.8419376574987043E+000  1.8767319466074479E+001
       O  8.4281173757733043E+000 -2.3013330352568757E+000  1.8027437897719995E+001
       H  4.0260253908718280E+000  1.8238841457898271E+001  8.4602691411304249E+000
       H  5.4452521826642837E+000  1.7650291378693716E+001  8.4011751393385286E+000
       O  4.5350152180539407E+000  1.7422001522131605E+001  8.1978414562089146E+000
       H  2.0681388015495422E+001  2.6220698798467271E+001  4.5481764047042619E+000
       H  2.1725973494809807E+001  2.5426351229729814E+001  3.7072417835132949E+000
       O  2.1239041445872690E+001  2.6257702333879575E+001  3.7360686751817873E+000
       H  1.6806416381468424E+001  9.4823083404029553E+000  2.1078855331824528E+001
       H  1.7350595858169566E+001  1.0766461047081984E+001  2.0534610702737847E+001
       O  1.7250108511605461E+001  1.0256328929673144E+001  2.1337609430756441E+001
       H  1.0449347576431615E+001 -1.2793875254728992E+001  1.8239723155780702E+001
       H  8.9854175387930173E+000 -1.2422109901345557E+001  1.7852233504093800E+001
       O  9.6943336032614322E+000 -1.3026564502714896E+001  1.7743841122434478E+001
       H  2.8659836387532593E+001  1.3130591345695020E+001  2.4149839086743210E+001
       H  3.0140551564257265E+001  1.3171515429434157E+001  2.3790570203401767E+001
       O  2.9469417239509610E+001  1.3561411944953946E+001  2.4393019425927463E+001
       H -1.6959087495781528E+001  8.3027541334750783E+000  1.3774029733938457E+001
       H -1.5529797203586753E+001  8.1995992093001941E+000  1.4110053884040017E+001
       O -1.6402125779986740E+001  8.0414907179842956E+000  1.4527481631155888E+001
       H  9.7089167188616532E-001  5.5234583639808141E+000  6.6989315938958161E+000
       H  2.1278185133840299E+000  6.2353068449919791E+000  7.3383712524393427E+000
       O  1.8735116037989239E+000  5.8011450758653371E+000  6.4663898557613511E+000
       H -9.4677126518705208E+000 -1.6480262278624828E+001  1.6242275116244208E+001
       H -9.5436643859527912E+000 -1.5240595482862346E+001  1.7063478179404719E+001
       O -8.9317530813163284E+000 -1.6005232973478844E+001  1.6942630904842719E+001
       H  2.6823538230839283E+001  1.0319354925916114E+001 -1.2044585594712691E+000
       H  2.7563641237809772E+001  1.1621258000850162E+001 -1.0730354202301680E+000
       O  2.7645660532620703E+001  1.0699085585979804E+001 -1.0251878436171162E+000
       H  1.3313106982317924E+001 -2.9000537659791421E+000  2.6673278780196547E+001
       H  1.3540491242576918E+001 -4.4491314899351613E+000  2.6531465283237601E+001
       O  1.2980805351211002E+001 -3.7177761250954116E+000  2.6147757688366944E+001
       H -5.9380411380755085E+000  9.7157656420177165E+000 -1.6281640283852710E+000
       H -7.1976107722616520E+000  9.8289778520063678E+000 -2.5629839716347451E+000
       O -6.8794427803014306E+000  1.0037797261984737E+001 -1.6785155719872733E+000
       H  5.4122602716982948E+000  5.7806602880108882E+000  1.4177506575397065E+000
       H  5.3479438299265531E+000  5.7205491420630263E+000  2.2221255105704531E-002
       O  5.3712716038416284E+000  5.0767735176447637E+000  7.7911595618333174E-001
       H  5.2415827366697221E-001 -1.9832570119509945E+000  2.7457595018157392E+000
       H  1.4185911929881312E+000 -5.4590689956268701E-001  3.1236953270570873E+000
       O  1.4054982192588141E+000 -1.5732967950424290E+000  3.0375237224442886E+000
       H -2.7060589585338097E+000  2.2904432375672616E+001 -4.0074159233390869E+000
       H -4.2525908455500154E+000  2.2704524430156958E+001 -4.2137871871414969E+000
       O -3.4524227066822051E+000  2.2254333692913320E+001 -4.1495515326161767E+000
       H  2.2796579220368201E+001  2.8200854348052353E+001  1.1664490853814364E+001
       H  2.2940320160142889E+001  2.6699833823662985E+001  1.1381048936000662E+001
       O  2.2330952196202379E+001  2.7409464442633201E+001  1.1422602944364858E+001
       H  2.6479537116159166E+000 -1.9976626186127273E+001 -7.2688428367770275E+000
       H  1.0661822404246555E+000 -2.0093166282933680E+001 -6.8596397507447922E+000
       O  2.0087271811022402E+000 -1.9739424897646916E+001 -6.6211134311204454E+000
       H  9.5871200281219178E+000  3.6281984551946156E+000  1.0047513078285167E+001
       H  8.2695789995588846E+000  3.8392401623375378E+000  1.1012723253710275E+001
       O  9.1343617633301122E+000  4.2380553902904738E+000  1.0698335892888000E+001
       H  1.1552962597984656E+001  2.0482959880869849E+001 -1.9481684442667540E+001
       H  1.2466066865423700E+001  1.9409856094531825E+001 -1.8938059248627614E+001
       O  1.1555193232961871E+001  1.9759951301689469E+001 -1.8841053118952466E+001
       H  1.5623098087096453E+001 -7.6958672183029622E+000 -1.6725216955703356E+001
       H  1.4779599406184373E+001 -7.0638743340761438E+000 -1.5589152601943303E+001
       O  1.4795951154984900E+001 -7.1925144963413308E+000 -1.6531452903886905E+001
       H  1.3679173938131900E+001 -3.3516146599355392E+000  2.9890410260834223E+001
       H  1.3563065795900647E+001 -3.6569081823849725E+000  2.8406301370572855E+001
       O  1.3888310440886592E+001 -2.9697727663079792E+000  2.8975629163431126E+001
       H  2.2548192611769274E+001  4.3112305592202844E+000  1.7002440749649601E+001
       H  2.1361637187434361E+001  5.1164169013341585E+000  1.6412338630411320E+001
       O  2.2283818194958354E+001  4.7477343634582763E+000  1.6226225871885799E+001
       H  1.4744895010828833E+001  2.2028908605670054E+001  1.2306396637099420E+001
       H  1.5296671046086422E+001  2.3408128972081027E+001  1.1941379775297689E+001
       O  1.5303592677314562E+001  2.2509308595955513E+001  1.1675422186229596E+001
       H  2.9374450205939118E+000  4.3018135806112854E+000  5.0389187384854459E+000
       H  3.2726689689163653E+000  3.2786423288123401E+000  4.0755915017481694E+000
       O  3.2722817195509886E+000  4.2888514903586552E+000  4.1438645775868350E+000
       H  1.7630470449736464E+001  2.2150635294529202E+001 -7.7470889720436960E+000
       H  1.8727239513015572E+001  2.1900887447035689E+001 -6.7824671492973332E+000
       O  1.8589241304649764E+001  2.2329415508103608E+001 -7.6633219385744118E+000
       H  3.0765503595511783E+000  3.6245474482210312E+001  1.5010339138999875E+001
       H  4.3192132675500110E+000  3.5681394950931626E+001  1.5394438062098541E+001
       O  3.8688532036553736E+000  3.6603842648748149E+001  1.5290915357506721E+001
       H  1.2486669227244233E+001  1.1188511337808709E+000  1.2592218551475572E+001
       H  1.2715865231417203E+001  1.6225498781260774E+000  1.1244437577204856E+001
       O  1.1933352069278557E+001  1.4100867176225991E+000  1.1849339535569911E+001
       H  1.3545946332491242E+001  1.7216687545421294E+001 -1.7416004753705330E+001
       H  1.2158197135281329E+001  1.7196659028598845E+001 -1.8025651391716451E+001
       O  1.3101855026236468E+001  1.7177479474725782E+001 -1.8269119590778484E+001
       H -9.6744403316181522E+000  1.4852581819424680E+001  6.2285425323444112E+000
       H -8.5934947811006150E+000  1.5685292642552652E+001  6.8839945192363805E+000
       O -9.5510409688733748E+000  1.5493002438027238E+001  7.0274238925183488E+000
       H  1.0645761421129887E+001  3.5788682736425137E+001  1.4753763022354658E+001
       H  9.6465282884768797E+000  3.6596248751631727E+001  1.5633529399931943E+001
       O  1.0558295721611380E+001  3.6198938667791737E+001  1.5631585135446640E+001
       H  6.1952034006586523E+000  6.1793568183839618E+000  1.5324101582288264E+001
       H  4.7128853762329372E+000  6.0397509526060542E+000  1.5877650662775265E+001
       O  5.6200154669344169E+000  6.5323644723991983E+000  1.6034762120069946E+001
       H -1.8961680503952001E+000  1.9210776997776104E+001 -1.0396441436397434E-001
       H -1.8514304463665330E+000  2.0700108559980265E+001 -8.2131164641382592E-001
       O -1.5273003956374442E+000  2.0124229826693327E+001 -1.4181813998436299E-001
       H -5.6496563145020424E+000  1.8734631152134970E+001  2.4340362712453029E+001
       H -5.0701073095846230E+000  1.7292564711946515E+001  2.3852901682983507E+001
       O -5.4264846509400204E+000  1.8256241715533903E+001  2.3523192493823327E+001
       H  1.9586905157728538E+001 -1.9174446744184550E+000  6.0330677508271293E+000
       H  1.8838804918887746E+001 -2.6361820599702410E+000  7.0666444323886424E+000
       O  1.8708569743056561E+001 -2.1306179541142773E+000  6.2611210967913271E+000
       H -3.2715035442276125E+001  6.5213679314168331E+000  2.3583037862995567E+001
       H -3.4023961116554887E+001  5.5957620898776517E+000  2.3288002823552528E+001
       O -3.3093451965893827E+001  5.8828007953724581E+000  2.2957432937103505E+001
       H  1.0626996013063970E+001  9.0064167647227311E+000  1.4032797988152939E+001
       H  9.3411731621428853E+000  9.7869508816327446E+000  1.3571543842217576E+001
       O  1.0178870115904120E+001  9.4321865891192829E+000  1.3256078239713094E+001
       H  1.8175284859046773E+001 -1.6878697298974586E+001  2.5613350271482265E+001
       H  1.8021634523802000E+001 -1.8004364738681879E+001  2.6588667790143081E+001
       O  1.8241155573910785E+001 -1.7795607115839985E+001  2.5695117256137184E+001
       H -1.0939409977314596E+000  1.6318180087216938E+001 -5.3468556893106083E+000
       H  9.1835833357343175E-002  1.7257856163622854E+001 -5.3428709305827224E+000
       O -4.5701944113116105E-001  1.6701514866882789E+001 -5.9739628573632926E+000
       H  1.8427650240843914E+001  1.0499029652060891E+001  1.6777588582185263E+001
       H  1.8956898820817418E+001  1.0834876776329285E+001  1.5403494795407054E+001
       O  1.8858108775090763E+001  1.1301224368476014E+001  1.6244710690947809E+001
       H  3.9074082231910174E+000  9.4097032643151284E+000  2.6269815990352971E+001
       H  2.5984510565667596E+000  9.0643576566535202E+000  2.5625719520413973E+001
       O  2.9132966603473140E+000  9.3755927836908413E+000  2.6440471161249580E+001
       H  1.9096615480303585E+000 -5.9472014882949722E+000 -1.5359374252752755E+000
       H  3.1239599187003293E+000 -6.5645344188430776E+000 -1.8424110598411301E+000
       O  2.1856893249004652E+000 -6.8084657456278581E+000 -1.9387590779634971E+000
       H  2.1948182210144025E+000  1.0106816053679433E+001  1.6989070200781583E+001
       H  3.0363411974288592E+000  8.8430715892277991E+000  1.6578887612662268E+001
       O  2.4160914503569741E+000  9.2491128955380599E+000  1.7400255390836115E+001
       H  7.7119105328608804E+000  2.3676361579011228E+001  3.1891973534808884E+001
       H  6.7079188171233328E+000  2.2926383112461995E+001  3.2897753981373938E+001
       O  7.5776695156908378E+000  2.3448066390678218E+001  3.2843061923298578E+001
       H  8.5985752655916929E+000  3.3766179728197358E+001 -1.5011220508868117E+000
       H  9.7267116451870130E+000  3.2748593286569189E+001 -1.6498341840591837E+000
       O  8.8560257530090567E+000  3.3000156853243070E+001 -2.0407000264897901E+000
       H  3.0369140808488537E-001  1.0546681266971047E+001  1.1812688299446959E+001
       H -7.1511415121907362E-001  1.1368930020939699E+001  1.2715519651752105E+001
       O -4.1042376031840556E-002  1.1462132168500762E+001  1.1955393940290570E+001
       H  1.6044453750494938E+001  1.3301077787255373E+001 -1.9383989873831382E+001
       H  1.5969385044174148E+001  1.2501900933761593E+001 -2.0659645904167490E+001
       O  1.5784382994630638E+001  1.2400087953166205E+001 -1.9703903720570931E+001
       H  1.3026030648467794E+001 -1.6906430728811572E+000  1.7332394271616572E+001
       H  1.1891525217200030E+001 -1.1425761521031808E+000  1.6444690811105858E+001
       O  1.2708938464525222E+001 -9.4416753645924612E-001  1.6780114422093700E+001
       H  1.5386452102883013E+001  6.2305812036100319E+000  2.1515022829182215E+001
       H  1.5352322201579920E+001  6.5270036998245011E+000  1.9918394283656625E+001
       O  1.5127162898924949E+001  6.9509798111190326E+000  2.0768263030934722E+001
       H  3.0922258033103578E+001 -1.1481843501850315E+000  2.3341220080705344E+001
       H  2.9431287540381817E+001 -8.1063604334967843E-001  2.2528035829373671E+001
       O  2.9939345302702865E+001 -1.3263588148561918E+000  2.3162338180786776E+001
       H  2.1400018407101623E+001  1.5969005127079470E+001  1.8259505828090056E+001
       H  2.1402634426304797E+001  1.5536177753868007E+001  1.6802573996307601E+001
       O  2.1823990938644013E+001  1.5369700045401485E+001  1.7658672698392188E+001
       H  1.0890116898021400E+001  5.5669546337924611E+000 -6.4408544042785474E+000
       H  9.9013469032688608E+000  5.1794029166918882E+000 -5.2656921880153726E+000
       O  1.0868670938638791E+001  5.2414447640430089E+000 -5.4853315393804953E+000
       H -2.3171760629006157E+000  1.2943050093703166E+001 -6.3835170851413032E+000
       H -2.6190623080535937E+000  1.2486332673491015E+001 -4.9450665534556526E+000
       O -2.7663532637170332E+000  1.2260614629090435E+001 -5.8498884509323608E+000
       H  9.1102859037068420E+000  7.6147911776191934E+000  1.2136314812319798E+001
       H  8.4274825844123065E+000  6.5219818095902875E+000  1.1398790058560650E+001
       O  8.2928814599566483E+000  7.1520615926287272E+000  1.2124502543155426E+001
       H -1.4961007874591937E+001 -4.3890724008291073E+000  4.4427857431584252E+000
       H -1.6040268430989791E+001 -3.3358864786784554E+000  4.1200485404259890E+000
       O -1.5870887767275834E+001 -4.1987210223104094E+000  4.3095537790483185E+000
       H  9.7495409918203901E-001  7.9702606182881111E+000 -7.7298652574477735E+000
       H -4.5200718555002084E-001  7.8701818754102479E+000 -7.1354540429282585E+000
       O  1.3503024530414898E-001  8.4213788032735337E+000 -7.5644761680458545E+000
       H  1.3339356756689950E+001  9.0645542270502357E+000  7.6980375189267054E+000
       H  1.4072681141102850E+001  9.8462880644174717E+000  8.7544157647177787E+000
       O  1.4258460612747992E+001  9.5644974424338933E+000  7.7992084600797629E+000
       H  3.1377632870035201E+000  1.0983332603996670E+001  2.4393689514384054E+000
       H  2.9463574431372184E+000  1.2458589136214169E+001  2.2043857425922400E+000
       O  3.5391820225718731E+000  1.1788783321098553E+001  2.0309176935126603E+000
       H  1.3869704302442814E+001  1.5417394697869923E+001 -6.0699183572876914E+000
       H  1.4892311823064663E+001  1.4503685067550080E+001 -5.8947271591891202E+000
       O  1.4740895531460527E+001  1.5323900174527518E+001 -6.4024615113756029E+000
       H  1.4340336273219588E+001  1.8909713026806852E+001  1.3921541436237376E+001
       H  1.4921697214316110E+001  2.0377590499411461E+001  1.4009691491081457E+001
       O  1.4206348421731436E+001  1.9874666375296332E+001  1.3562115518694659E+001
       H  5.6848149663724836E+000 -4.2302752843569822E+000 -1.2803226028988524E+001
       H  4.9160089716558870E+000 -5.1364419300522677E+000 -1.1852474142972589E+001
       O  4.8747801055891049E+000 -4.7559094927295984E+000 -1.2743727631965228E+001
       H  7.8485736045067860E+000  1.1756887391152938E+001  4.6863708041471659E+000
       H  6.7036352293666761E+000  1.2025831977453903E+001  5.6697074305551061E+000
       O  7.4176905173550125E+000  1.1367220943227158E+001  5.4297290916759033E+000
       H  1.2640310164475904E+001  7.5416269788319719E+000  9.7342522234526481E+000
       H  1.1737927382595720E+001  8.6246047205971674E+000  9.8111525885698221E+000
       O  1.2691143583635949E+001  8.4298464106021971E+000  9.9840134237714171E+000
       H  7.5423028347381826E-001 -2.5822941808145933E-001 -9.5474961300372971E+000
       H  5.6424728176827832E-001  1.4647060765972699E+000 -8.9820204244454569E+000
       O  2.7991625186202546E-001  5.0868512151986423E-001 -9.0098782359335434E+000
       H  1.9184047068248611E+000  1.4120053778805467E+001  5.3845892320544326E+000
       H  1.9174482344184860E+000  1.3121575068166576E+001  6.5753076134018320E+000
       O  1.3649024836606363E+000  1.3772452578771016E+001  6.1411067808481947E+000
       H -7.0632225258408718E+000 -6.8778037033321793E+000  1.7445529100837465E+001
       H -6.7489091526398575E+000 -6.4032891229576938E+000  1.6096247232604664E+001
       O -6.6939551141063314E+000 -6.0920045423371514E+000  1.6982637025154819E+001
       H  1.9720180021909467E+001  2.2093297058717329E+000  1.4475112302376351E+001
       H  1.8773988156394015E+001  1.0415146833756890E+000  1.4531862266909316E+001
       O  1.8764225766748524E+001  1.9941254990567487E+000  1.4276991122903969E+001
       H  1.5917581147108097E+001 -4.4907197942510084E+000  2.8863444593303992E+001
       H  1.7447779633378488E+001 -5.0766147022830346E+000  2.8752700212294844E+001
       O  1.6797480346447198E+001 -4.5628563244994949E+000  2.9311623426921759E+001
       H  1.9708592704872228E+001  9.1982192513685990E-001  2.0492228048228334E+001
       H  1.9828759805079734E+001  1.6655058522072232E+000  2.1869811132490728E+001
       O  2.0287399734755116E+001  9.2949807232919579E-001  2.1279048529109996E+001
       H  8.4482012060964689E+000  1.7105066736541077E+000 -5.5971366085877845E+000
       H  9.9852039438813218E+000  1.4805925133678381E+000 -5.7307496408433236E+000
       O  9.2279052374868549E+000  1.2208636300186755E+000 -5.1790281966945830E+000
       H  9.4772463838288363E+000 -5.9113912836154583E+000 -5.0954542973786268E+000
       H  8.5493096973621618E+000 -6.6331510253016548E+000 -4.2371265756875802E+000
       O  9.1232516001515176E+000 -6.8502500812493992E+000 -4.9971558784250369E+000
       H  3.5343571208309633E+001  1.5669893239052236E+001  1.3728946124634989E+001
       H  3.5410702708516460E+001  1.5674531854524457E+001  1.5380545753968734E+001
       O  3.5895301359404591E+001  1.5520892488584488E+001  1.4559568586455985E+001
       H  1.9847724677654522E+001  8.6389942323458477E+000  7.8548849851591820E+000
       H  1.9901105537116202E+001  1.0118833123085908E+001  7.7960479193530867E+000
       O  1.9282137508478915E+001  9.4104374053528392E+000  7.7146817431722452E+000
       H  8.4267332256335585E+000 -6.7365234845251702E+000  7.1597333429799113E+000
       H  9.2697466479106758E+000 -5.6595385897728052E+000  7.6734258488766427E+000
       O  8.7532265617954721E+000 -6.4128722767144195E+000  8.0100474442253713E+000
       H -4.0097525838165051E+000  5.6929793823121768E+000  5.2313861901353018E+000
       H -2.5628525397267001E+000  5.1789009745895127E+000  4.9015253870978732E+000
       O -3.4914119760049025E+000  5.0029999485262504E+000  4.7401784365745145E+000
       H  1.3451605263878687E+001 -1.4027237758391516E+001 -3.1983974376415856E+000
       H  1.1951920463610524E+001 -1.3990940530575436E+001 -3.8653470552550093E+000
       O  1.2896258951191415E+001 -1.3549825154001653E+001 -3.8498249592627420E+000
       H  2.0925485347167857E+001 -1.4684428530929046E+000  6.8722936640818166E-001
       H  2.2472713144941871E+001 -1.2413510244296002E+000  6.5523890130792495E-001