 # Version information for this restart file 
 # current date 2025-03-29 20:50:45.779
 # current working dir /ccc/scratch/cont003/gen2309/sicilana/NPT/128_H2O_4_NaCl_10_wt_673K_1000bar/BATCH_10_MD_T_673_P_1000_steps_1000_dt_0.5_NH2O_128_NaCl_4_abc_17.19_17.19_17.19_wt_9.20
 # Program compiled at                                       2024-10-31 15:04:21
 # Program compiled on                                                 topaze131
 # Program compiled for                                                   x86_64
 # Source code revision number                                                  
 &GLOBAL
   PRINT_LEVEL LOW
   PROJECT_NAME "brines"
   RUN_TYPE MD
   FLUSH_SHOULD_FLUSH T
 &END GLOBAL
 &MOTION
   &MD
     ENSEMBLE NPT_I
     STEPS 1000
     TIMESTEP  4.9999999999999994E-001
     STEP_START_VAL 25850
     TIME_START_VAL  1.2925000000006998E+004
     ECONS_START_VAL -2.4590398713531335E+003
     TEMPERATURE  6.7300000000000011E+002
     &BAROSTAT
       PRESSURE  1.0000000000000000E+003
       TIMECON  9.9999999999999986E+001
       &VELOCITY
           6.6809197065683887E-006
       &END VELOCITY
       &MASS
           4.2836593343398705E+007
       &END MASS
       &THERMOSTAT
         TYPE CSVR
         &CSVR
           TIMECON  4.8377686530095694E+001
           &THERMOSTAT_ENERGY
              -4.0522437736688973E-004
           &END THERMOSTAT_ENERGY
           &RNG_INIT
 Wiener process for Thermostat # 1        1 F T F   7.4822843991211618E-01        2673575488.0        3996577838.0        2313835770.0        2667187484.0         420262714.0          17738339.0             12345.0             12345.0             12345.0             12345.0             12345.0             12345.0             12345.0             12345.0             12345.0             12345.0             12345.0             12345.0
           &END RNG_INIT
         &END CSVR
       &END THERMOSTAT
     &END BAROSTAT
     &THERMOSTAT
       TYPE CSVR
       &CSVR
         TIMECON  4.9999999999999994E+002
         &THERMOSTAT_ENERGY
            -8.1588953319727708E-001
         &END THERMOSTAT_ENERGY
         &RNG_INIT
 Wiener process for Thermostat # 1        1 F T F  -6.0980808863461167E-01        3056938680.0        3966029166.0         713949667.0        1146265486.0        1999454154.0        2311203625.0             12345.0             12345.0             12345.0             12345.0             12345.0             12345.0             12345.0             12345.0             12345.0             12345.0             12345.0             12345.0
         &END RNG_INIT
       &END CSVR
     &END THERMOSTAT
     &AVERAGES T
       &RESTART_AVERAGES
         ITIMES_START 1
         AVECPU  2.2925921092053255E+001
         AVEHUGONIOT  0.0000000000000000E+000
         AVETEMP_BARO  3.0119061012126673E+002
         AVEPOT -2.4597127028064124E+003
         AVEKIN  1.2239674372086309E+000
         AVETEMP  6.5899042886483005E+002
         AVEKIN_QM  0.0000000000000000E+000
         AVETEMP_QM  0.0000000000000000E+000
         AVEVOL  3.8436626848687250E+004
         AVECELL_A  3.3674161211447419E+001
         AVECELL_B  3.3674161211447419E+001
         AVECELL_C  3.3674161211447419E+001
         AVEALPHA  9.0000000000000000E+001
         AVEBETA  9.0000000000000000E+001
         AVEGAMMA  9.0000000000000000E+001
         AVE_ECONS -1.2685130149964512E+002
         AVE_PRESS  3.8113083812472922E+002
         AVE_PXX  3.5123966954874561E+002
       &END RESTART_AVERAGES
     &END AVERAGES
   &END MD
   &PRINT
     &TRAJECTORY SILENT
       FILENAME =brines-1.xyz
       &EACH
         MD 1
       &END EACH
     &END TRAJECTORY
     &CELL SILENT
       FILENAME =brines-1.cell_xyz
       &EACH
         MD 1
       &END EACH
     &END CELL
     &VELOCITIES SILENT
       FILENAME =brines-1.vel
       &EACH
         MD 1
       &END EACH
     &END VELOCITIES
     &FORCES SILENT
       FILENAME =brines-1.force
       &EACH
         MD 1
       &END EACH
     &END FORCES
     &STRESS SILENT
       FILENAME =brines-1.stress
       &EACH
         MD 1
       &END EACH
     &END STRESS
     &RESTART SILENT
       FILENAME =brines-1.restart
       &EACH
         MD 1
       &END EACH
     &END RESTART
     &RESTART_HISTORY SILENT
       &EACH
         MD 50
       &END EACH
     &END RESTART_HISTORY
   &END PRINT
 &END MOTION
 &FORCE_EVAL
   METHOD QS
   STRESS_TENSOR ANALYTICAL
   &DFT
     BASIS_SET_FILE_NAME /ccc/work/cont003/gen2309/sicilana/DATA_CP2K/GTH_BASIS_SETS
     POTENTIAL_FILE_NAME /ccc/work/cont003/gen2309/sicilana/DATA_CP2K/GTH_POTENTIALS
     &SCF
       MAX_SCF 50
       EPS_SCF  9.9999999999999995E-008
       &OT T
         MINIMIZER DIIS
         PRECONDITIONER FULL_SINGLE_INVERSE
       &END OT
       &OUTER_SCF T
         EPS_SCF  9.9999999999999995E-008
         MAX_SCF 50
       &END OUTER_SCF
     &END SCF
     &QS
       EPS_DEFAULT  1.0000000000000000E-014
       EPSFIT  1.0000000000000000E-004
       EPSISO  9.9999999999999998E-013
       EPSRHO0  9.9999999999999995E-007
       QUADRATURE GC_LOG
       EXTRAPOLATION ASPC
       METHOD GAPW
     &END QS
     &MGRID
       NGRIDS 4
       CUTOFF  5.0000000000000000E+002
       REL_CUTOFF  6.0000000000000000E+001
     &END MGRID
     &XC
       DENSITY_CUTOFF  1.0000000000000000E-010
       GRADIENT_CUTOFF  1.0000000000000000E-010
       TAU_CUTOFF  1.0000000000000000E-010
       &XC_FUNCTIONAL NO_SHORTCUT
         &PBE T
           PARAMETRIZATION REVPBE
         &END PBE
       &END XC_FUNCTIONAL
       &VDW_POTENTIAL
         POTENTIAL_TYPE PAIR_POTENTIAL
         &PAIR_POTENTIAL
           TYPE DFTD3
           PARAMETER_FILE_NAME /ccc/work/cont003/gen2309/sicilana/DATA_CP2K/dftd3.dat
           REFERENCE_FUNCTIONAL "PBE"
           CALCULATE_C9_TERM T
           REFERENCE_C9_TERM T
           VERBOSE_OUTPUT T
           D3_EXCLUDE_KIND 3
         &END PAIR_POTENTIAL
       &END VDW_POTENTIAL
     &END XC
     &REAL_TIME_PROPAGATION
       INITIAL_WFN RT_RESTART
     &END REAL_TIME_PROPAGATION
     &PRINT
       &MO_CUBES SILENT
         WRITE_CUBE F
         NLUMO 10
         NHOMO 2
         &EACH
           MD 200
         &END EACH
       &END MO_CUBES
     &END PRINT
   &END DFT
   &SUBSYS
     &CELL
       A  1.9430573731068289E+001  0.0000000000000000E+000  0.0000000000000000E+000
       B  0.0000000000000000E+000  1.9430573731068289E+001  0.0000000000000000E+000
       C  0.0000000000000000E+000  0.0000000000000000E+000  1.9430573731068289E+001
       MULTIPLE_UNIT_CELL 1 1 1
     &END CELL
     &COORD
       H  9.8644432331192338E+000  2.3299224656788819E+001  8.5585979436476500E-001
       H  9.0489952638626932E+000  2.4194367112576330E+001  1.7837655260685625E+000
       O  9.6316541126700361E+000  2.3441976789051488E+001  1.7759728640149726E+000
       H  8.2176590377765226E+000 -7.1984220922933639E+000  1.7350536453423735E+000
       H  9.1033535606586540E+000 -8.3907311210765236E+000  1.8519680534202168E+000
       O  8.5681037716552382E+000 -7.8642369936526659E+000  2.4222722631255906E+000
       H -1.0717953666031965E+001  4.8891470369117457E+001  4.9307877788697809E+001
       H -1.0372554209062123E+001  4.9337396453193037E+001  4.7783824237648886E+001
       O -1.0545718870122945E+001  4.8570314971435614E+001  4.8357321690053915E+001
       H  8.2886198257767134E+000  2.3416398509363905E+001  2.6191450465197466E+001
       H  9.6062437951300677E+000  2.3289489935842113E+001  2.5634818288149525E+001
       O  9.1687007597854162E+000  2.3702615407349260E+001  2.6379676072678933E+001
       H -8.8781665858865377E+000  5.8404348444979526E+000  9.3269606314042690E+000
       H -7.6676409960161616E+000  5.0986024742140357E+000  8.7315427880526855E+000
       O -7.9620436063926068E+000  5.9897344044045155E+000  9.0592899343170590E+000
       H  3.4334196056534324E+001  2.8018974163278767E+001 -6.1609965420636614E+000
       H  3.3478865938118219E+001  2.8456056579230520E+001 -7.3815306476718501E+000
       O  3.4116754204355054E+001  2.8770956437606870E+001 -6.7055071364688219E+000
       H -4.7767006040310429E+000  5.5656578467908702E+000  8.5711871871984684E+000
       H -5.5020751684809150E+000  4.9168544928692590E+000  9.7681883090085435E+000
       O -5.5091045827420277E+000  4.9625790483513956E+000  8.8399302288534560E+000
       H  2.7000915419662284E+001  2.2508585425137535E+000  5.0608181824285159E-001
       H  2.5850907449566584E+001  3.3720476980769245E+000  7.5961075766596098E-001
       O  2.6084878909773462E+001  2.5901337593567115E+000  2.3170313081938484E-001
       H  2.2390902127369557E+001  1.3608162485260713E+001  1.5210420002275583E+001
       H  2.2499237378905462E+001  1.3891817178944589E+001  1.3612296589415116E+001
       O  2.2567384485257527E+001  1.4286265184490327E+001  1.4491837570263728E+001
       H  2.3942476144895238E+001 -2.9123096048850505E-001  2.2264096083689214E+001
       H  2.4286652837914264E+001 -1.5632346332230065E+000  2.1300917841840473E+001
       O  2.4188611396684724E+001 -6.0395018102625508E-001  2.1295683093941634E+001
       H  7.7789085911910316E+000 -5.0876180133034465E-001 -9.1483153978401770E+000
       H  7.4024830942620667E+000 -3.0396073180548766E-001 -7.7158978128139220E+000
       O  7.1777766736812545E+000 -5.6841903588715798E-002 -8.5392078807897001E+000
       H  1.2984009655763073E+001  2.8706210287245226E+000  2.2173174957044374E+001
       H  1.1453045123176432E+001  3.4051505349454496E+000  2.2096268994772924E+001
       O  1.2308756693436177E+001  3.5796501840194308E+000  2.2439972352370770E+001
       H  1.7128847285481964E+001  1.4794816685924072E+001  4.6679756382930391E+000
       H  1.7709253413369282E+001  1.5833788551978566E+001  5.6863014813676767E+000
       O  1.6894707947404264E+001  1.5389160178720983E+001  5.3582223568293834E+000
       H  5.4031095376552543E+000 -1.0382188912731330E+001 -1.1441335195474176E+000
       H  6.4536316863292837E+000 -1.0485457775365576E+001 -2.2339561126859526E+000
       O  6.2746269658479470E+000 -1.0644510522520623E+001 -1.2948833017440802E+000
       H  3.1901466580755322E+001  3.5401333057754776E+001 -5.0100365322685569E-001
       H  3.1268941821168550E+001  3.4422637890564566E+001 -1.4735428611226111E+000
       O  3.1047717902540963E+001  3.4830444015587730E+001 -6.2488390500169233E-001
       H  1.3413235993504271E+001  1.3558931541832893E+000 -1.0734234739750173E+001
       H  1.3591894606324804E+001  2.9223641896891452E+000 -1.0628756540221929E+001
       O  1.3135863190152151E+001  2.2128402072403577E+000 -1.0193927176929146E+001
       H  2.0247929891600371E+001  1.0599402060108809E+000  6.1599678864695004E+000
       H  2.1382544903646828E+001  6.5438332799528909E-001  7.0715388233748264E+000
       O  2.1182548865910412E+001  1.2438876895511157E+000  6.3133180814663055E+000
       H  9.3674402726781718E+000 -2.1399337280902722E+000  1.8678818302449031E+001
       H  8.0593728425842848E+000 -1.5549395311298422E+000  1.8582925291991547E+001
       O  8.5813325141125496E+000 -2.2346604567282142E+000  1.8191911858880037E+001
       H  4.1993820995805642E+000  1.8351771258959491E+001  7.9471483402179981E+000
       H  5.3411305662944866E+000  1.7194860107925887E+001  7.9092380854479503E+000
       O  4.4589250112316252E+000  1.7420338408024151E+001  8.1849640065009890E+000
       H  2.0938378753588939E+001  2.6111788755020200E+001  4.4221466384393766E+000
       H  2.2012779368753836E+001  2.5713913417803422E+001  3.5669165452811873E+000
       O  2.1296579218645348E+001  2.6424401461076421E+001  3.6086482878487018E+000
       H  1.7687607846501095E+001  9.6454657612289338E+000  2.0998440852674005E+001
       H  1.6994876331703178E+001  1.0850328156800723E+001  2.0522479075948134E+001
       O  1.7421070322839007E+001  1.0487291733464980E+001  2.1362301640379840E+001
       H  1.0353161406585262E+001 -1.2652392541766183E+001  1.8717209578509486E+001
       H  9.3383199802995218E+000 -1.2219130877815685E+001  1.7632181343016661E+001
       O  9.9006403896227440E+000 -1.2954980001341957E+001  1.7888782192172759E+001
       H  2.8991839832229608E+001  1.3752441726809259E+001  2.3596616302236232E+001
       H  3.0556725101645032E+001  1.4026580865597529E+001  2.4072739199161926E+001
       O  2.9633704677901477E+001  1.3796069155451923E+001  2.4425496878042800E+001
       H -1.7404097136759209E+001  7.6857134256386388E+000  1.4482406021798393E+001
       H -1.5874645520826325E+001  7.5343972946445898E+000  1.4232178157981132E+001
       O -1.6556430711990622E+001  8.1910854789760315E+000  1.4599832613911348E+001
       H  1.0168364469459190E+000  6.1064072097935123E+000  7.0703020936373173E+000
       H  2.1286288744384922E+000  5.1460520472741447E+000  6.8758417846028186E+000
       O  1.7944819751346117E+000  5.9736273456904243E+000  6.5551225184604451E+000
       H -9.7769635684714409E+000 -1.6442766764930045E+001  1.6883372494698435E+001
       H -8.9969955010627860E+000 -1.5159586195913747E+001  1.7072412626337684E+001
       O -8.8813062595239014E+000 -1.6116716963426246E+001  1.7150594235540179E+001
       H  2.7519070555396631E+001  9.9364296159305763E+000 -7.1438496127761442E-001
       H  2.7562270168359596E+001  1.1535452687149718E+001 -1.0119501429135846E+000
       O  2.8075854002863469E+001  1.0737248131965517E+001 -1.0325487269298919E+000
       H  1.3428112891127565E+001 -2.9450591699947730E+000  2.6297624840999806E+001
       H  1.3639705051213332E+001 -4.3739341779956575E+000  2.6376658718551742E+001
       O  1.2946364864509711E+001 -3.7335141748974481E+000  2.6471110605016477E+001
       H -5.9950676351644026E+000  9.3462064590649785E+000 -1.5084350949612444E+000
       H -7.0402197513089515E+000  9.4541854999559654E+000 -2.6401440160012206E+000
       O -6.7918222273093471E+000  9.8479008703328308E+000 -1.8269682002721062E+000
       H  5.6619092554419783E+000  5.3054814228096943E+000  1.5107256171360517E+000
       H  6.0648130955365058E+000  5.6460391058550252E+000  4.3595936221988298E-002
       O  5.6932208862100495E+000  4.9009362451001417E+000  6.2408429947732169E-001
       H  5.4210708866414103E-001 -1.5078454940088195E+000  3.4167016791166001E+000
       H  1.6354692079678983E+000 -6.3443276697803230E-001  2.8444849163102579E+000
       O  1.4637333481582597E+000 -1.6110449688673296E+000  2.9624417399963283E+000
       H -2.6520804250598475E+000  2.2244137801724026E+001 -4.4445161150439443E+000
       H -3.6433294523816646E+000  2.3171028735881759E+001 -3.7042797885740204E+000
       O -3.5611289645945732E+000  2.2426594977106443E+001 -4.3382232526582838E+000
       H  2.3033152900257928E+001  2.8172233099013223E+001  1.1319534233280509E+001
       H  2.3243406132276455E+001  2.6679162243420208E+001  1.1552579011062210E+001
       O  2.2643055267059736E+001  2.7347871939362381E+001  1.1658235404303577E+001
       H  2.6093223037512834E+000 -2.0433065360567628E+001 -7.2655624395522160E+000
       H  1.1732457631220783E+000 -1.9782174635262610E+001 -7.0046805673729233E+000
       O  2.0581565888827438E+000 -2.0115561491867918E+001 -6.5790083824937753E+000
       H  1.0019248863145553E+001  4.0820882049988514E+000  1.1017465008689124E+001
       H  8.8570544236190276E+000  3.5685438410796002E+000  1.0186047162401747E+001
       O  9.0386938063457407E+000  4.1353933893329486E+000  1.0931327830953919E+001
       H  1.1223838325969767E+001  2.0460758251683473E+001 -1.9571393272168400E+001
       H  1.2655862678280528E+001  1.9629490144212340E+001 -1.9170963065398976E+001
       O  1.1855283685889319E+001  2.0052553289432659E+001 -1.8900172250182013E+001
       H  1.4989877242760999E+001 -7.8455485655284862E+000 -1.7618714231985226E+001
       H  1.5128622260792509E+001 -7.4804931905083878E+000 -1.6000322054452301E+001
       O  1.4703344036765273E+001 -7.2597573233004526E+000 -1.6816567415160392E+001
       H  1.4176213689899251E+001 -3.0047782076949909E+000  3.0098069094199502E+001
       H  1.3057371494294571E+001 -3.3815886420990755E+000  2.9202643185002525E+001
       O  1.3967709926168247E+001 -3.0856000558248469E+000  2.9197784729063766E+001
       H  2.3300434685201786E+001  4.7222584203163223E+000  1.6669951993130049E+001
       H  2.2217062372727664E+001  5.6892037393055084E+000  1.7150833737738083E+001
       O  2.2338823245207994E+001  4.9673380675043664E+000  1.6484350247526965E+001
       H  1.5059077549265792E+001  2.2123634626916708E+001  1.2382438751532534E+001
       H  1.5178679764748134E+001  2.3583094596612916E+001  1.2039840879283281E+001
       O  1.5521444592858698E+001  2.2717304146551243E+001  1.1732814868257423E+001
       H  2.4897167127255804E+000  4.2562419450755922E+000  4.5896761603537062E+000
       H  3.0885193334753214E+000  3.1082161194576750E+000  3.8049081436693641E+000
       O  3.3467704158414109E+000  4.0594632462933378E+000  4.1080784598249558E+000
       H  1.7816494605529105E+001  2.2626664381251157E+001 -7.4302274854867214E+000
       H  1.9182344023842109E+001  2.2304366680353986E+001 -6.7006767605906061E+000
       O  1.8803972845300038E+001  2.2533646874914069E+001 -7.5995339849516128E+000
       H  3.5138486854676123E+000  3.7046199823113632E+001  1.4754702550889883E+001
       H  4.0701811437613520E+000  3.5656622814870694E+001  1.5426403692841417E+001
       O  3.7546268698030727E+000  3.6622852406247851E+001  1.5603000052531314E+001
       H  1.2862996590319288E+001  1.4082192123404373E+000  1.2561970378797442E+001
       H  1.2629862108017885E+001  1.9962968243646466E+000  1.1260035906030591E+001
       O  1.2214957430946150E+001  1.3998601829881618E+000  1.1876847391856270E+001
       H  1.3578235132132862E+001  1.7981783526200363E+001 -1.7879730601833916E+001
       H  1.2376446113370511E+001  1.7318182642884178E+001 -1.8354412728605467E+001
       O  1.3329923725788531E+001  1.7153003699697351E+001 -1.8238272908826549E+001
       H -9.2069738486285928E+000  1.5159171475936304E+001  6.4470509067416559E+000
       H -8.6770922606422385E+000  1.6070367842054672E+001  7.3214191925644307E+000
       O -9.5290120640393674E+000  1.5543202350651889E+001  7.2602352993158332E+000
       H  1.0411858260197180E+001  3.6589876735758345E+001  1.4725515435269283E+001
       H  9.9953258186128036E+000  3.6746218054243421E+001  1.6106991138321341E+001
       O  1.0787770473315062E+001  3.6498127213116540E+001  1.5623245884743882E+001
       H  6.3317352749125835E+000  6.0777374067012708E+000  1.6419110496080371E+001
       H  5.0220801131211061E+000  5.9308697761227602E+000  1.5615439210344924E+001
       O  5.4894830376697774E+000  6.4306316850225489E+000  1.6271421704658199E+001
       H -1.9521686569132053E+000  1.9460184595925298E+001  1.1325775371189589E-001
       H -1.7329948565292637E+000  2.0511606411451574E+001 -1.1852879757578134E+000
       O -1.5980765529522134E+000  2.0293413781493047E+001 -2.4181618288277557E-001
       H -5.1466946127659314E+000  1.9125756438117143E+001  2.4188922170951738E+001
       H -4.9239904223640183E+000  1.7836682374782686E+001  2.3432392390176528E+001
       O -5.6110980039174994E+000  1.8483407174478462E+001  2.3634784435628770E+001
       H  1.9729478359323220E+001 -2.3459292031817292E+000  6.1015685644657216E+000
       H  1.8883773516551734E+001 -2.1523445146700664E+000  7.2656318951463152E+000
       O  1.8827833213000918E+001 -2.4931375105261000E+000  6.3295253387424673E+000
       H -3.3052579776795845E+001  6.2955540434268009E+000  2.3821044216576951E+001
       H -3.3709850255737564E+001  4.9987371451830001E+000  2.3390235476995265E+001
       O -3.3329162303777380E+001  5.8066286895863310E+000  2.3002830166849481E+001
       H  1.0252887802886072E+001  9.4260403244898594E+000  1.4249843988981487E+001
       H  9.8071309324820195E+000  1.0490749854588227E+001  1.3097536889694529E+001
       O  1.0293943480113514E+001  9.6456496573126937E+000  1.3265696948728300E+001
       H  1.8521640797034401E+001 -1.6738703220056284E+001  2.5322878047380669E+001
       H  1.7812039669874402E+001 -1.7759885865594427E+001  2.6334869817942074E+001
       O  1.8308498325038567E+001 -1.7724787225481034E+001  2.5474903848954675E+001
       H -1.3392796955954274E+000  1.6532389856671632E+001 -5.5123050268813936E+000
       H -1.1634344519655727E-001  1.7358483632455357E+001 -5.0876802517731043E+000
       O -5.3994839129756733E-001  1.6946267353887308E+001 -5.8797335007878138E+000
       H  1.9286974862615274E+001  1.0300651903007488E+001  1.6852940977141561E+001
       H  1.9121749105635544E+001  1.0881785227774202E+001  1.5473700356161821E+001
       O  1.9102362525528964E+001  1.1061422040219094E+001  1.6393453549963191E+001
       H  3.7583955538001064E+000  9.0101485318392882E+000  2.6937019986030730E+001
       H  2.5782637260560453E+000  8.7139746539369316E+000  2.5963402994474805E+001
       O  2.8369834373556126E+000  9.3917924187644140E+000  2.6540014495446833E+001
       H  1.8856247931673449E+000 -6.2789217326327389E+000 -1.3148611241296606E+000
       H  3.0464077551486510E+000 -6.0217840076727827E+000 -1.9093465250788721E+000
       O  2.4198887684863513E+000 -6.8047302747495078E+000 -1.9669604334322137E+000
       H  2.4079681994485003E+000  1.0274293387688413E+001  1.7895195152713736E+001
       H  2.6627313170090461E+000  9.1193852945307903E+000  1.6793634887927734E+001
       O  2.2908894671790310E+000  9.3824802285808442E+000  1.7665114453030235E+001
       H  7.7500083887921694E+000  2.4394442989141545E+001  3.2767153398629937E+001
       H  6.4142073044694463E+000  2.3459696290599449E+001  3.3075645570979887E+001
       O  7.3798564533461404E+000  2.3607237760165660E+001  3.3251539329082746E+001
       H  8.6316988221107813E+000  3.4129688298946796E+001 -2.1752055877254191E+000
       H  9.9032051623720712E+000  3.3122705556282419E+001 -2.2421332887519192E+000
       O  8.9382915756703802E+000  3.3179516106596175E+001 -2.0874558252232571E+000
       H -1.7333211063656334E-001  1.0521030026665349E+001  1.1905729440997284E+001
       H -9.2072197229064578E-001  1.1774870108232426E+001  1.2514375691736744E+001
       O -2.3948949560646218E-001  1.1536227231453539E+001  1.1837207497777470E+001
       H  1.5308946873510816E+001  1.3445232276818491E+001 -1.9741303366014630E+001
       H  1.6370506792585793E+001  1.2970646114909455E+001 -2.0749328456499075E+001
       O  1.5977895016955364E+001  1.2676773500250180E+001 -1.9910226979627801E+001
       H  1.2917906484731407E+001 -1.6559017537589449E+000  1.7561695516645962E+001
       H  1.2276724340027522E+001 -1.3897520686331148E+000  1.6069433805124209E+001
       O  1.2887156046607247E+001 -9.9905362035244882E-001  1.6811358078313418E+001
       H  1.4983669146142429E+001  7.1182966524774098E+000  2.1845209459193818E+001
       H  1.6246076989791135E+001  6.8539914745293826E+000  2.1008253690908770E+001
       O  1.5346507004673375E+001  7.0713063979017923E+000  2.0852905227515333E+001
       H  3.0861786786752216E+001 -1.7467369331891200E+000  2.3540492506367809E+001
       H  3.0244902031353622E+001 -4.3500007395705736E-001  2.2897303710120642E+001
       O  3.0045751326940721E+001 -1.3364053753840541E+000  2.3155427844867937E+001
       H  2.2496210107485339E+001  1.5993072662770038E+001  1.8597554659843667E+001
       H  2.1288361206456358E+001  1.6042106735463634E+001  1.7624683241610267E+001
       O  2.1950193948973364E+001  1.5417395079357927E+001  1.7992801609807412E+001
       H  1.0832840867822771E+001  6.0016404994162507E+000 -6.0594327106728709E+000
       H  1.0201317313844770E+001  4.6390015304023535E+000 -5.7756878288280795E+000
       O  1.0910217161680048E+001  5.1901603776939007E+000 -5.4596067905052852E+000
       H -3.2480255764641899E+000  1.2939049782370045E+001 -6.4108623045329081E+000
       H -2.4465296835121042E+000  1.2967887946248505E+001 -5.0406376605420675E+000
       O -2.6297078086814394E+000  1.2378372940433344E+001 -5.8869350772542255E+000
       H  8.8210619690426757E+000  7.8044259798650355E+000  1.2399138337662873E+001
       H  7.7754221752878330E+000  7.1107986513799402E+000  1.1460240931437369E+001
       O  8.2121605364091206E+000  7.0352505462061252E+000  1.2313830495573994E+001
       H -1.5310937978110303E+001 -4.2839924696251348E+000  5.1561622072216915E+000
       H -1.5775254233824686E+001 -4.1895130099411526E+000  3.5786578975806105E+000
       O -1.6041392171589763E+001 -4.0993407077583077E+000  4.5137781632830611E+000
       H  8.6059392956799807E-001  8.0522513964274687E+000 -8.0606692020282331E+000
       H -5.5810499269934288E-001  8.3780625569994118E+000 -8.5048875703840228E+000
       O  1.1322095719656880E-002  8.3648454558680054E+000 -7.7096320517417514E+000
       H  1.4009155611879986E+001  9.1170081477704468E+000  7.4565217778369854E+000
       H  1.3897377448708655E+001  9.8300217568521173E+000  8.7595160363674598E+000
       O  1.4523656545947059E+001  9.7258806668566642E+000  7.9904136166026039E+000
       H  3.7793275602580372E+000  1.1136566853568985E+001  1.5402822427048422E+000
       H  2.7676759839172069E+000  1.1851424518493227E+001  2.6509725094940175E+000
       O  3.7350229808653759E+000  1.1924255989559782E+001  2.2691044866685219E+000
       H  1.3775587500218876E+001  1.5803486354863903E+001 -6.5045280768021838E+000
       H  1.4598406864949757E+001  1.4561304330173261E+001 -6.3088540727421547E+000
       O  1.4677862704106799E+001  1.5493590511050725E+001 -6.6034013180667639E+000
       H  1.4220930269133552E+001  1.9127372048145130E+001  1.3746955431240798E+001
       H  1.5301030119715705E+001  1.9989529710450888E+001  1.4236464528082003E+001
       O  1.4560766046937324E+001  2.0079415425140642E+001  1.3674963937229125E+001
       H  5.7605823024522920E+000 -5.0781872543838613E+000 -1.2753133647893675E+001
       H  4.3391649255645177E+000 -5.3826075627562409E+000 -1.2258589819668336E+001
       O  4.8719272373121019E+000 -4.6688970571964497E+000 -1.2736451823959682E+001
       H  7.4916961588808739E+000  1.1537536093592365E+001  4.7434714966485965E+000
       H  6.4515955243057759E+000  1.2114517206614893E+001  5.6479497945806543E+000
       O  7.3450200591317714E+000  1.1741343516503251E+001  5.6754461972765462E+000
       H  1.2954568838896506E+001  7.6206400010090904E+000  9.7108231894422801E+000
       H  1.1685817902834176E+001  8.2917903010048484E+000  9.8459733684691173E+000
       O  1.2661169216056479E+001  8.4968582863929676E+000  1.0001845212777830E+001
       H  8.4614580545314855E-001 -1.9159161875060577E-002 -9.5756717355884415E+000
       H  4.9883845878823690E-001  1.4052435722932688E+000 -8.6245797986803954E+000
       O  3.2406963876867512E-001  4.8534504357630753E-001 -8.9787189166586323E+000
       H  2.1927356727680398E+000  1.4191345080800367E+001  5.8728208402551241E+000
       H  1.8450707352967319E+000  1.3285800544009996E+001  7.0987446401113692E+000
       O  1.4320040603898032E+000  1.3877216568019737E+001  6.4488567070197078E+000
       H -6.5887984242419604E+000 -6.3825986105119341E+000  1.8046534719996977E+001
       H -6.5017469673424086E+000 -6.5994671320205329E+000  1.6548207578770857E+001
       O -6.8206994744249716E+000 -5.9852318966333655E+000  1.7214482467393658E+001
       H  1.9229904191971634E+001  2.0367537202726567E+000  1.5433773735570337E+001
       H  1.8665075986026761E+001  1.0910605507295192E+000  1.4346517186809223E+001
       O  1.8978728181038850E+001  2.0209055462208867E+000  1.4487266773377499E+001
       H  1.6381441153176638E+001 -4.3837894885629423E+000  2.8819780194707242E+001
       H  1.7630371981633889E+001 -5.0962589583117888E+000  2.9118472801397463E+001
       O  1.6963559984897802E+001 -4.6321196519609646E+000  2.9540561481758164E+001
       H  1.9791676461999888E+001  7.1089069839507735E-001  2.0625337017036927E+001
       H  2.0038755958473551E+001  1.8471279209842286E+000  2.1678930990585055E+001
       O  2.0396515148356404E+001  1.0282275638752398E+000  2.1290541918494881E+001
       H  8.6685491946245712E+000  1.9440754555531305E+000 -4.8032409993382927E+000
       H  9.8921409230842219E+000  2.1141542119506318E+000 -5.6394291646231629E+000
       O  9.4258549686665134E+000  1.4849546281661881E+000 -5.1971553094889709E+000
       H  1.0013957773758239E+001 -6.0794609440054312E+000 -4.9856225927608282E+000
       H  8.5705942699373665E+000 -6.6236528028301702E+000 -4.4836242997335214E+000
       O  9.4046051457007387E+000 -6.8240402180234589E+000 -5.0610459271990722E+000
       H  3.5461094021801671E+001  1.6110116788415652E+001  1.4230562059111382E+001
       H  3.6439917777933459E+001  1.5652880513342817E+001  1.5326046374305452E+001
       O  3.6095193675553880E+001  1.5380289885631829E+001  1.4513295443200459E+001
       H  2.0366513403435896E+001  8.9524630860498231E+000  8.3027856760109202E+000
       H  1.9490468049875826E+001  1.0183040169175053E+001  7.8151535913164025E+000
       O  1.9458885714213221E+001  9.2314907715755847E+000  7.9551755662976689E+000
       H  8.7924683059826467E+000 -6.8296641414132182E+000  6.8688159887057072E+000
       H  9.3255817395461165E+000 -5.9263192562765505E+000  7.8747489998407030E+000
       O  8.6947240532057961E+000 -6.7153036524474992E+000  7.8209260027150540E+000
       H -4.4947481631653581E+000  5.7959527404560696E+000  4.8900798910068639E+000
       H -3.1339594854474919E+000  5.4073513854200410E+000  5.4061342613271819E+000
       O -3.6819432903230465E+000  5.2845917014632331E+000  4.6481743946129290E+000
       H  1.2815553445278709E+001 -1.3878977338252025E+001 -2.8048840942915145E+000
       H  1.2138177418741657E+001 -1.3842870693999647E+001 -4.0362091999454135E+000
       O  1.3082225969384108E+001 -1.3684109769707412E+001 -3.7479540322933289E+000
       H  2.1456609310355567E+001 -2.1152699728715278E+000  9.4561140364468388E-001
       H  2.2621853760907541E+001 -1.1722207846167856E+000  6.4166228592650865E-001