 # Version information for this restart file 
 # current date 2025-03-29 14:36:34.887
 # current working dir /ccc/scratch/cont003/gen2309/sicilana/NPT/128_H2O_4_NaCl_10_wt_673K_1000bar/BATCH_9_MD_T_673_P_1000_steps_1000_dt_0.5_NH2O_128_NaCl_4_abc_17.19_17.19_17.19_wt_9.20
 # Program compiled at                                       2024-10-31 15:04:21
 # Program compiled on                                                 topaze131
 # Program compiled for                                                   x86_64
 # Source code revision number                                                  
 &GLOBAL
   PRINT_LEVEL LOW
   PROJECT_NAME "brines"
   RUN_TYPE MD
   FLUSH_SHOULD_FLUSH T
 &END GLOBAL
 &MOTION
   &MD
     ENSEMBLE NPT_I
     STEPS 1000
     TIMESTEP  4.9999999999999994E-001
     STEP_START_VAL 25000
     TIME_START_VAL  1.2500000000007141E+004
     ECONS_START_VAL -2.4590398713531335E+003
     TEMPERATURE  6.7300000000000011E+002
     &BAROSTAT
       PRESSURE  1.0000000000000000E+003
       TIMECON  9.9999999999999986E+001
       &VELOCITY
           7.4657055466370070E-007
       &END VELOCITY
       &MASS
           4.2836593343398705E+007
       &END MASS
       &THERMOSTAT
         TYPE CSVR
         &CSVR
           TIMECON  4.8377686530095694E+001
           &THERMOSTAT_ENERGY
              -3.8632477409212613E-004
           &END THERMOSTAT_ENERGY
           &RNG_INIT
 Wiener process for Thermostat # 1        1 F T F  -2.6755093921943901E-01        4144235242.0        2585569407.0        2426648540.0        3371072432.0        1462612250.0        1694140367.0             12345.0             12345.0             12345.0             12345.0             12345.0             12345.0             12345.0             12345.0             12345.0             12345.0             12345.0             12345.0
           &END RNG_INIT
         &END CSVR
       &END THERMOSTAT
     &END BAROSTAT
     &THERMOSTAT
       TYPE CSVR
       &CSVR
         TIMECON  4.9999999999999994E+002
         &THERMOSTAT_ENERGY
            -7.6167216663901116E-001
         &END THERMOSTAT_ENERGY
         &RNG_INIT
 Wiener process for Thermostat # 1        1 F T F   1.8696542361560959E+00        3569297573.0        2044399331.0        2652647076.0        1939024705.0        3466100563.0        4082771930.0             12345.0             12345.0             12345.0             12345.0             12345.0             12345.0             12345.0             12345.0             12345.0             12345.0             12345.0             12345.0
         &END RNG_INIT
       &END CSVR
     &END THERMOSTAT
     &AVERAGES T
       &RESTART_AVERAGES
         ITIMES_START 1
         AVECPU  2.2808933700610531E+001
         AVEHUGONIOT  0.0000000000000000E+000
         AVETEMP_BARO  3.0295990510426935E+002
         AVEPOT -2.4597024755487396E+003
         AVEKIN  1.2263446156407845E+000
         AVETEMP  6.6027031408634366E+002
         AVEKIN_QM  0.0000000000000000E+000
         AVETEMP_QM  0.0000000000000000E+000
         AVEVOL  3.8170345457619624E+004
         AVECELL_A  3.3598567073497783E+001
         AVECELL_B  3.3598567073497783E+001
         AVECELL_C  3.3598567073497783E+001
         AVEALPHA  9.0000000000000000E+001
         AVEBETA  9.0000000000000000E+001
         AVEGAMMA  9.0000000000000000E+001
         AVE_ECONS -1.1884951192427619E+002
         AVE_PRESS  3.5774025857667999E+002
         AVE_PXX  3.2997107426989692E+002
       &END RESTART_AVERAGES
     &END AVERAGES
   &END MD
   &PRINT
     &TRAJECTORY SILENT
       FILENAME =brines-1.xyz
       &EACH
         MD 1
       &END EACH
     &END TRAJECTORY
     &CELL SILENT
       FILENAME =brines-1.cell_xyz
       &EACH
         MD 1
       &END EACH
     &END CELL
     &VELOCITIES SILENT
       FILENAME =brines-1.vel
       &EACH
         MD 1
       &END EACH
     &END VELOCITIES
     &FORCES SILENT
       FILENAME =brines-1.force
       &EACH
         MD 1
       &END EACH
     &END FORCES
     &STRESS SILENT
       FILENAME =brines-1.stress
       &EACH
         MD 1
       &END EACH
     &END STRESS
     &RESTART SILENT
       FILENAME =brines-1.restart
       &EACH
         MD 1
       &END EACH
     &END RESTART
     &RESTART_HISTORY SILENT
       &EACH
         MD 50
       &END EACH
     &END RESTART_HISTORY
   &END PRINT
 &END MOTION
 &FORCE_EVAL
   METHOD QS
   STRESS_TENSOR ANALYTICAL
   &DFT
     BASIS_SET_FILE_NAME /ccc/work/cont003/gen2309/sicilana/DATA_CP2K/GTH_BASIS_SETS
     POTENTIAL_FILE_NAME /ccc/work/cont003/gen2309/sicilana/DATA_CP2K/GTH_POTENTIALS
     &SCF
       MAX_SCF 50
       EPS_SCF  9.9999999999999995E-008
       &OT T
         MINIMIZER DIIS
         PRECONDITIONER FULL_SINGLE_INVERSE
       &END OT
       &OUTER_SCF T
         EPS_SCF  9.9999999999999995E-008
         MAX_SCF 50
       &END OUTER_SCF
     &END SCF
     &QS
       EPS_DEFAULT  1.0000000000000000E-014
       EPSFIT  1.0000000000000000E-004
       EPSISO  9.9999999999999998E-013
       EPSRHO0  9.9999999999999995E-007
       QUADRATURE GC_LOG
       EXTRAPOLATION ASPC
       METHOD GAPW
     &END QS
     &MGRID
       NGRIDS 4
       CUTOFF  5.0000000000000000E+002
       REL_CUTOFF  6.0000000000000000E+001
     &END MGRID
     &XC
       DENSITY_CUTOFF  1.0000000000000000E-010
       GRADIENT_CUTOFF  1.0000000000000000E-010
       TAU_CUTOFF  1.0000000000000000E-010
       &XC_FUNCTIONAL NO_SHORTCUT
         &PBE T
           PARAMETRIZATION REVPBE
         &END PBE
       &END XC_FUNCTIONAL
       &VDW_POTENTIAL
         POTENTIAL_TYPE PAIR_POTENTIAL
         &PAIR_POTENTIAL
           TYPE DFTD3
           PARAMETER_FILE_NAME /ccc/work/cont003/gen2309/sicilana/DATA_CP2K/dftd3.dat
           REFERENCE_FUNCTIONAL "PBE"
           CALCULATE_C9_TERM T
           REFERENCE_C9_TERM T
           VERBOSE_OUTPUT T
           D3_EXCLUDE_KIND 3
         &END PAIR_POTENTIAL
       &END VDW_POTENTIAL
     &END XC
     &REAL_TIME_PROPAGATION
       INITIAL_WFN RT_RESTART
     &END REAL_TIME_PROPAGATION
     &PRINT
       &MO_CUBES SILENT
         WRITE_CUBE F
         NLUMO 10
         NHOMO 2
         &EACH
           MD 200
         &END EACH
       &END MO_CUBES
     &END PRINT
   &END DFT
   &SUBSYS
     &CELL
       A  1.8895062209511984E+001  0.0000000000000000E+000  0.0000000000000000E+000
       B  0.0000000000000000E+000  1.8895062209511984E+001  0.0000000000000000E+000
       C  0.0000000000000000E+000  0.0000000000000000E+000  1.8895062209511984E+001
       MULTIPLE_UNIT_CELL 1 1 1
     &END CELL
     &COORD
       H  8.6774381510063243E+000  2.4527391453793193E+001 -9.5384176180797564E-001
       H  8.3453477321040150E+000  2.3254033155051484E+001 -8.2480455186744669E-002
       O  9.0861154487741835E+000  2.3919220465560354E+001 -2.8171753800087529E-001
       H  8.1836106361720020E+000 -7.1744989843466316E+000  1.6556745699969955E+000
       H  8.8682024665996924E+000 -7.5090986848298176E+000  4.5615490242059370E-001
       O  8.7598955790455779E+000 -7.9066955382243762E+000  1.2986179127292006E+000
       H -1.2482461395748929E+001  4.8278785221450747E+001  4.6578418255470808E+001
       H -1.1569177472939254E+001  4.8930668571020789E+001  4.5577962147104650E+001
       O -1.1477809789412239E+001  4.8356069713255863E+001  4.6412776269471543E+001
       H  6.6944651195489344E+000  2.4278900685473175E+001  2.4884803221075128E+001
       H  8.0505662345208790E+000  2.3544483117415698E+001  2.4692949590946586E+001
       O  7.5283856047711897E+000  2.3953412049085522E+001  2.5375368111346141E+001
       H -8.7383310431285039E+000  6.5138507802086361E+000  5.5010341455721852E+000
       H -9.9465807903397270E+000  7.0349005594143916E+000  6.2502884898839639E+000
       O -9.0724035581722138E+000  6.7679872395638858E+000  6.4582729625673521E+000
       H  3.3417842014193582E+001  2.4787369821757512E+001 -8.6789351860784176E+000
       H  3.3176962528875471E+001  2.4605002129736746E+001 -7.0959880384674818E+000
       O  3.3311439821809522E+001  2.5319399395556577E+001 -7.8287060564736146E+000
       H -6.4061859085326853E+000  5.0305310292771495E+000  6.6253589497166248E+000
       H -6.3186455850658767E+000  5.8367095470182058E+000  7.9833547289837181E+000
       O -5.8299003559436606E+000  5.2794738039130555E+000  7.3745620420412941E+000
       H  2.4049683653939312E+001  5.3635389763651240E+000  2.8639294804772351E+000
       H  2.5241332618404041E+001  5.9781861157247045E+000  2.7560490714860824E+000
       O  2.4764389806000825E+001  5.4103309897876750E+000  2.1586618164868567E+000
       H  2.0318669769053511E+001  1.4205631686826031E+001  1.4218319104912153E+001
       H  2.0400932940802804E+001  1.3158180283943476E+001  1.5330948507897228E+001
       O  1.9801294373612368E+001  1.3943424174710556E+001  1.5015948788577134E+001
       H  2.3028718004234140E+001  1.3343013440037219E+000  2.1244161554858344E+001
       H  2.3302207114913084E+001  4.9327404918872053E-001  1.9898968213806821E+001
       O  2.2592431334925831E+001  8.6292948557897475E-001  2.0469649449577616E+001
       H  9.4749489708374490E+000 -3.3672991583360110E+000 -6.9048044521663652E+000
       H  1.0453499361418766E+001 -2.3288572357277340E+000 -7.6004497757546448E+000
       O  9.7088737755401713E+000 -2.9174592195532827E+000 -7.7298207786353252E+000
       H  1.0633241399279370E+001  3.4290139979649341E+000  1.8024090100947149E+001
       H  1.1941746099776532E+001  2.9644117381403099E+000  1.7343606058282397E+001
       O  1.1192981807748724E+001  2.6700513742937018E+000  1.7924530268645185E+001
       H  1.5132555625389456E+001  1.7056789557739428E+001  6.2013965320753286E+000
       H  1.6688988554063776E+001  1.7037915395900626E+001  6.4890689991129173E+000
       O  1.6003337498506966E+001  1.6480323642150072E+001  6.0464709089990594E+000
       H  3.9197436057641357E+000 -1.0454002547034049E+001 -1.5802394664744037E+000
       H  4.7793596512594814E+000 -1.1022412416580377E+001 -5.3323648217380126E-001
       O  4.4657805078674357E+000 -1.0130826258851355E+001 -8.2526856805575710E-001
       H  3.2002521824089655E+001  3.1112899281119137E+001 -7.4650533824583798E-001
       H  3.1410901178048316E+001  3.1769138124490631E+001  4.7392855014666191E-001
       O  3.1106158039619636E+001  3.1239278446256829E+001 -2.7673065287690740E-001
       H  1.3332501275218778E+001  1.8030627673043689E+000 -7.0564398147856426E+000
       H  1.3609562433884793E+001  5.8978035783201666E-001 -8.0553940366444099E+000
       O  1.3166190930088064E+001  8.6243327510893086E-001 -7.1938652807076044E+000
       H  2.1927221459746363E+001  2.5322115248421251E+000  3.8412131023780152E+000
       H  2.3094038221588448E+001  3.0546574040754328E+000  4.7168797122078292E+000
       O  2.2850178084381714E+001  2.3151977877766012E+000  4.1085017492359759E+000
       H  7.9107575777841248E+000 -2.1414661149515331E+000  1.6390004788772803E+001
       H  7.0693584976674124E+000 -2.8931784761011339E+000  1.7362715014246547E+001
       O  7.2423453512541469E+000 -1.9609879769459646E+000  1.7080030760778165E+001
       H  4.1266831828977448E+000  1.6640608176023147E+001  8.2613363309866017E+000
       H  5.2188277447959290E+000  1.6199745806888714E+001  9.1655516965879968E+000
       O  4.9414164098649724E+000  1.6101762737108874E+001  8.1870254324922076E+000
       H  2.0304178297382037E+001  2.9219227429123169E+001  4.8868965277030538E+000
       H  1.9331468098100959E+001  2.8439974475647119E+001  4.0863659581887291E+000
       O  2.0253362435923098E+001  2.8434371493949691E+001  4.3661028969727855E+000
       H  1.6123747061942147E+001  6.5558039635943262E+000  2.0654012275224300E+001
       H  1.4794688167873112E+001  6.8938157850374511E+000  2.1228238566827322E+001
       O  1.5722104352757128E+001  6.8369113486852537E+000  2.1498423312721386E+001
       H  6.3370019401753410E+000 -1.2225048598744433E+001  1.5977660668355437E+001
       H  5.4731094218113654E+000 -1.2773966142113807E+001  1.7012876980906260E+001
       O  6.3628454756684310E+000 -1.2480173049715997E+001  1.6902186136917713E+001
       H  2.8742150289392555E+001  9.6905956229585417E+000  2.4503151363409369E+001
       H  2.9367075963591049E+001  1.0368240959986801E+001  2.3208241437343723E+001
       O  2.8521751880150255E+001  1.0278509473115808E+001  2.3808409980981512E+001
       H -1.3020716229236255E+001  7.3888215469548149E+000  1.0942817808541527E+001
       H -1.1911240397924745E+001  8.3432451459942882E+000  1.1111723294991547E+001
       O -1.2841703161949066E+001  8.3260259578640579E+000  1.1249123986405150E+001
       H  2.7822950925234595E+000  5.2780708144962292E+000  9.2800828152321913E+000
       H  1.6351956990944565E+000  4.3341122453152421E+000  9.1693876165292689E+000
       O  2.5645979302408768E+000  4.4506992922151545E+000  8.7960391895791687E+000
       H -1.0311186762842670E+001 -1.4281121136835541E+001  1.4574334800010579E+001
       H -1.1527289703714759E+001 -1.4118502144109392E+001  1.5474083057972214E+001
       O -1.0996060492335969E+001 -1.4826936354366250E+001  1.5037446470756793E+001
       H  2.5430546806222218E+001  9.7504016184531945E+000 -1.2953265444575939E+000
       H  2.6522545619435849E+001  1.0667074805693325E+001 -1.6742206336584351E+000
       O  2.5848715996111039E+001  1.0196512415552919E+001 -2.0482922398989318E+000
       H  1.2570905201809650E+001 -1.5320632811349977E+000  2.3397609068413441E+001
       H  1.1885117627258351E+001 -1.6500682509933144E+000  2.4727558027895594E+001
       O  1.2714340996913810E+001 -1.8404612465417960E+000  2.4304571796355287E+001
       H -7.9761871558020800E+000  1.0999806271452860E+001  1.7567305486675517E+000
       H -6.4557888661871097E+000  1.0928215177164484E+001  1.7940606297252140E+000
       O -7.2490029446315010E+000  1.0485031204499206E+001  2.2051476654515629E+000
       H  4.7709681884086184E+000  8.0424009307253481E+000  3.3790675050855690E+000
       H  3.3202249948646467E+000  8.8003845127653602E+000  3.3418096871296048E+000
       O  4.0411513940404582E+000  8.3766210408082156E+000  2.8484946232749979E+000
       H  1.1513817177629884E+000 -1.5600917082274388E+000  2.5275703001842444E+000
       H  2.0403795940782810E+000 -2.5721694673952604E+000  3.2671467710008555E+000
       O  1.5265636056672127E+000 -2.5300344232868537E+000  2.3530871855223445E+000
       H -4.2262481219252104E+000  2.2853199832934465E+001 -2.5962590568016251E+000
       H -3.5188424567645304E+000  2.1555517657921797E+001 -2.2375780399794070E+000
       O -4.4780203962795939E+000  2.1977012806032683E+001 -2.3872774196093469E+000
       H  2.0840588442379723E+001  2.8516774226202504E+001  8.5554154213909452E+000
       H  2.0551579969782065E+001  2.7379304896981228E+001  9.4716416428687520E+000
       O  2.0469848130003584E+001  2.7618809222509011E+001  8.5555182995710251E+000
       H  3.3586906624917638E+000 -1.6432177453290066E+001 -8.4194819968681145E+000
       H  3.9070575560884260E+000 -1.7573968832051531E+001 -7.6881391475020155E+000
       O  4.0771781101280640E+000 -1.6663139862491754E+001 -7.7175231577332637E+000
       H  1.0031950385109226E+001  5.3235175906187333E+000  9.9472141045595173E+000
       H  1.0604702849543537E+001  4.1881325941155474E+000  9.1034304932488279E+000
       O  1.0380327989670560E+001  4.4541268537163825E+000  1.0019249854697046E+001
       H  9.6993252983868690E+000  1.9182789865555769E+001 -2.0110903617761750E+001
       H  1.0047831836920466E+001  2.0035693698787441E+001 -1.9160438056527440E+001
       O  9.2358735565360650E+000  1.9642359410085358E+001 -1.9411331797026957E+001
       H  1.4454726332990234E+001 -4.4785493660438709E+000 -1.2467843780055256E+001
       H  1.4000602779229666E+001 -5.4532421254311876E+000 -1.3633672991679102E+001
       O  1.4308312926177212E+001 -5.4501362544627918E+000 -1.2707519683354009E+001
       H  1.3184984675436279E+001 -2.5894383345473178E+000  2.8932047463594820E+001
       H  1.2553650233851849E+001 -1.2306050151302779E+000  2.9367705834063216E+001
       O  1.3185140684348765E+001 -1.5683829319721820E+000  2.8777945589099751E+001
       H  2.1729961622041667E+001  5.3923629772288821E+000  1.6944920988086615E+001
       H  2.2829319220871980E+001  4.4579210854525266E+000  1.6558267420936517E+001
       O  2.2533333947059656E+001  5.3697385510603581E+000  1.6423026803736683E+001
       H  1.5154646221026439E+001  2.2792676563764427E+001  1.1700515953968345E+001
       H  1.5163219233405021E+001  2.1645673229483901E+001  1.2594086002370430E+001
       O  1.4570021046033240E+001  2.2326001888517414E+001  1.2325315405979936E+001
       H  4.2216137867635997E+000  6.2999683280283474E+000  5.3128219356724600E+000
       H  2.8779222383570309E+000  6.0471331785741596E+000  6.2607401578356674E+000
       O  3.7799194927097837E+000  5.7106555846593094E+000  6.0156263162879950E+000
       H  1.8155122866278720E+001  2.2040092552676626E+001 -7.5155096056395632E+000
       H  1.7430672999673479E+001  2.1039678648202123E+001 -6.5287824030200374E+000
       O  1.7421918822514581E+001  2.1935350457542558E+001 -6.8719169142448289E+000
       H  3.6734713660018103E+000  3.6453676942617477E+001  1.3411862378672627E+001
       H  4.2484642981512266E+000  3.5090214741179835E+001  1.3260975674248058E+001
       O  3.3777858085113999E+000  3.5520384591878567E+001  1.3352631645029430E+001
       H  8.6660179779882167E+000  1.6366915329930485E+000  1.3930457533964349E+001
       H  1.0243302119920946E+001  2.0116727532388907E+000  1.3996840740005890E+001
       O  9.5684612041681216E+000  1.3573294088082497E+000  1.3723417396665781E+001
       H  1.1694246497749623E+001  1.6325209460960721E+001 -1.8596626948872515E+001
       H  1.2146454951867200E+001  1.7275030665691027E+001 -1.7527047303312465E+001
       O  1.1375272437295857E+001  1.6738030136532426E+001 -1.7773979562589940E+001
       H -8.7260547287982817E+000  1.2234553499604651E+001  5.1380117043865710E+000
       H -7.7925855952273508E+000  1.3310692414095909E+001  5.7009817502096292E+000
       O -8.5003956079038794E+000  1.3159326845289380E+001  5.0022722630577121E+000
       H  6.1369493862387845E+000  3.3952041707959459E+001  1.3684112198082465E+001
       H  6.2581379741088785E+000  3.5186261110262713E+001  1.4572631730280582E+001
       O  6.1451741596089322E+000  3.4908191763379399E+001  1.3628970546561550E+001
       H  7.2299960066112750E+000  8.0888388168430101E+000  1.4472992087681163E+001
       H  6.8085823733934276E+000  6.8400584390186259E+000  1.3499460015509246E+001
       O  7.2456512089485710E+000  7.0997681397825581E+000  1.4283115657672601E+001
       H  9.4575451907378261E-002  1.8374962804683147E+001  4.4187822057037462E-001
       H -3.1935133589423559E-001  1.9653345959217933E+001  4.6656916905988310E-001
       O  3.6431623336116797E-002  1.9020656526015166E+001  1.1338416576190955E+000
       H -4.1000767910101326E+000  1.7717503793008859E+001  2.1302929831035410E+001
       H -4.1933001728396295E+000  1.9294535547437022E+001  2.0706546681003640E+001
       O -4.7160661817251643E+000  1.8471459906990830E+001  2.1138947559059691E+001
       H  1.9574638200089282E+001 -4.0304215684223327E-001  6.8525970212228522E+000
       H  1.9309273171732137E+001 -1.9292473202777711E+000  7.2287902978444487E+000
       O  1.9052775116647791E+001 -1.1798006487958934E+000  6.5449459328837083E+000
       H -3.1238043474661357E+001  7.3588643504129392E+000  2.3560666389461787E+001
       H -3.2084410047948921E+001  7.4519104200412993E+000  2.4913761910358655E+001
       O -3.1938334375362547E+001  6.8897883094045511E+000  2.4048681023634643E+001
       H  1.1281793011171553E+001  8.4116575461239371E+000  1.3492337584792711E+001
       H  1.1850277652009357E+001  8.9666399017765883E+000  1.4790676622845089E+001
       O  1.2106280871702246E+001  8.5067039453162714E+000  1.3942408649957525E+001
       H  1.7652792121592078E+001 -1.6228113676196944E+001  2.6776528516867206E+001
       H  1.6183040467312271E+001 -1.6475047616375171E+001  2.7205347515749335E+001
       O  1.7035482700563065E+001 -1.6914255465092864E+001  2.7058729141523102E+001
       H -1.2882460601401442E+000  1.7600341945391342E+001 -5.7907367038270348E+000
       H  9.5327786667313799E-002  1.7446343860925523E+001 -5.3107694164020565E+000
       O -4.2911783013992505E-001  1.7299828431840179E+001 -6.0876385411533462E+000
       H  1.7018853544558556E+001  1.1198198714158647E+001  1.7228154534300533E+001
       H  1.5919099754034779E+001  1.2316508907927593E+001  1.6952781318937426E+001
       O  1.6099470932381635E+001  1.1390036675426844E+001  1.7067287485955557E+001
       H  3.9844672581245248E+000  1.0525895969691884E+001  2.4378838522695983E+001
       H  2.9247319910647058E+000  1.0696938353428582E+001  2.5524742491973527E+001
       O  3.2072760149481918E+000  1.1180506596647984E+001  2.4746031532288193E+001
       H  1.4839536009060788E+000 -7.8496694328812247E+000 -2.9183978896245186E+000
       H  3.3765417390765648E-002 -7.4597576812629232E+000 -2.3072943647916411E+000
       O  9.8592671062380643E-001 -7.4547984539420789E+000 -2.1653116371105150E+000
       H  3.1859210058564487E+000  7.7951436893324688E+000  1.4135308911675105E+001
       H  4.3187483682273236E+000  8.8075335670048851E+000  1.4662140099237618E+001
       O  3.6766469926993284E+000  8.1345551482523746E+000  1.4899977802054638E+001
       H  7.9669880392172958E+000  2.4434591429134112E+001  2.9918020039854721E+001
       H  8.4604130830036581E+000  2.3815901274003870E+001  3.1224024098596775E+001
       O  7.6385522884742096E+000  2.4157922370743592E+001  3.0847980258365414E+001
       H  8.6017364075910443E+000  3.2986188973631087E+001 -2.0640790869414491E-001
       H  1.0145014422666186E+001  3.3152663588585348E+001 -6.7705865053394532E-001
       O  9.3824114688869535E+000  3.2558588832964986E+001 -6.2961119102196683E-001
       H  1.2345398362834794E+000  1.0475602079430145E+001  1.4125371474993489E+001
       H  2.5168064718214653E+000  9.7093541223820221E+000  1.4400364070869671E+001
       O  2.1781989705588853E+000  1.0528755739697859E+001  1.4201363454893745E+001
       H  1.5794264635075937E+001  9.9912360485735299E+000 -1.7527335725106497E+001
       H  1.5008010119696394E+001  1.1182023835787591E+001 -1.7724698011210823E+001
       O  1.4960133544764949E+001  1.0327858584987524E+001 -1.7333325923702986E+001
       H  1.0653270312923505E+001 -2.1743398072057158E+000  1.7354608527777451E+001
       H  1.1583199540838240E+001 -2.8887827531466623E+000  1.6401821347931907E+001
       O  1.1127235612042673E+001 -2.9911035995444784E+000  1.7279928563658910E+001
       H  1.3335663724845391E+001  3.9036475059664757E+000  2.1584145372538860E+001
       H  1.2935680179021258E+001  4.4981938019726204E+000  2.0172733578842490E+001
       O  1.3619507770940647E+001  4.5767289903521853E+000  2.0819316509279311E+001
       H  2.8636021391496001E+001 -1.8381435012810186E+000  2.2190128165953801E+001
       H  2.9076929695711637E+001 -3.3414720369939510E-001  2.2413486197037624E+001
       O  2.9033560890915616E+001 -1.1829798875567210E+000  2.2830273451639499E+001
       H  1.6504486240600155E+001  1.5554481279448865E+001  1.5341522935780191E+001
       H  1.7434100095740913E+001  1.4460980490590741E+001  1.5591284113950392E+001
       O  1.6544565446160348E+001  1.4634571341736734E+001  1.5257331799086165E+001
       H  1.1266305562557845E+001  5.7977391162762260E+000 -5.9073623370489416E+000
       H  1.1223053284864232E+001  4.2913813598153299E+000 -6.2193207652502158E+000
       O  1.0744945690204217E+001  4.9794803957255365E+000 -5.6824823399719158E+000
       H -1.6162906358279581E+000  1.0433454249223447E+001 -4.1608928057739041E+000
       H -1.1062958324805916E+000  1.1751454574325418E+001 -4.7947283414103445E+000
       O -1.0212451910073757E+000  1.0746419604559543E+001 -4.8613021143922781E+000
       H  9.7851665521077624E+000  8.2183769965083915E+000  9.1967845759678486E+000
       H  8.2419876634226004E+000  7.9849733407054018E+000  9.3323872778268591E+000
       O  9.1350013109166746E+000  7.5374840548000392E+000  9.3574555076914638E+000
       H -1.3231707988211566E+001 -2.7245551562248016E+000  3.6375185906888632E+000
       H -1.3532615553804746E+001 -1.1499858824935401E+000  3.5406100190438394E+000
       O -1.3684886239025859E+001 -1.9754468234197604E+000  4.0258217967966354E+000
       H  1.9166387585155538E+000  9.4544653081246057E+000 -7.0253585108505803E+000
       H  1.3510086329751549E+000  8.0230267484388129E+000 -6.8177757914763850E+000
       O  1.9401489547082982E+000  8.4791487473447305E+000 -7.3907657589540232E+000
       H  1.4162374240663597E+001  8.9488571599922739E+000  6.6774557633894460E+000
       H  1.4920964259726810E+001  1.0189433780969738E+001  7.1245450833865824E+000
       O  1.5133851330461580E+001  9.3080023194356958E+000  6.8758937161027003E+000
       H  4.0557666595300654E+000  1.1139978023389094E+001  2.6526032507382968E+000
       H  4.4457462087898092E+000  1.0754879970404485E+001  1.3115651388932250E+000
       O  4.1136615636702407E+000  1.1471942626422518E+001  1.7922416585611411E+000
       H  1.3538918225524480E+001  1.2843400628286171E+001 -6.9206735337720389E+000
       H  1.4302684440492548E+001  1.3119382818584810E+001 -5.7025289174965668E+000
       O  1.4192409642955408E+001  1.3431282012992643E+001 -6.6473437556717894E+000
       H  1.2270064946520673E+001  1.9451297879159622E+001  1.5395631832708160E+001
       H  1.3256147765910161E+001  2.0110927451276524E+001  1.6186452650822467E+001
       O  1.2861678766275219E+001  1.9230966109624124E+001  1.6154603727242538E+001
       H  4.9542326054144157E+000 -6.3825277446354249E+000 -1.2464563025759931E+001
       H  5.9269605447080238E+000 -5.3997312146939933E+000 -1.1962516436780117E+001
       O  5.4249262952989143E+000 -6.1809525161634706E+000 -1.1673993255728163E+001
       H  8.9194166607050942E+000  8.1741911754762224E+000  3.3996967071636837E+000
       H  8.9943599581988796E+000  7.3006094850618455E+000  2.2441058019424562E+000
       O  8.3916041185357226E+000  7.4805904106365162E+000  3.0417617681621905E+000
       H  1.1705138181906518E+001  1.1532145396334155E+001  1.0096766011089693E+001
       H  1.1042929744828934E+001  1.0194081192993677E+001  1.0749007243661216E+001
       O  1.1151210217586033E+001  1.0716635440538452E+001  9.9074625331745398E+000
       H  7.1719865768517710E-001  9.3194162292556226E-002 -9.9511896822434807E+000
       H -5.1946745319474463E-001  1.1480799906107844E+000 -1.0139303413127335E+001
       O  4.2597368425447379E-001  9.7197543749136472E-001 -9.7128794974679220E+000
       H  2.5485332450204998E+000  1.4147308384367369E+001  5.1040086516429524E+000
       H  3.2794362562146850E+000  1.5434969749118089E+001  5.5745228851105146E+000
       O  3.3014311826611391E+000  1.4481518306613788E+001  5.6798132050134633E+000
       H -8.3067103255981127E+000 -5.4358004720824935E+000  1.4666186633767857E+001
       H -7.5157049777007554E+000 -5.4113625623169037E+000  1.6066406837573727E+001
       O -7.4127242514279166E+000 -5.3955923314168341E+000  1.5090392873319521E+001
       H  1.6603196774179562E+001  7.6483081658484686E-001  1.4166765700950879E+001
       H  1.5574427186330448E+001  1.6387977485408670E-001  1.3155682311465661E+001
       O  1.5886383618586448E+001  9.8067124094635538E-001  1.3554365017797796E+001
       H  1.8069895082918762E+001 -5.3284016678045232E+000  2.9864539473591591E+001
       H  1.6645427847121272E+001 -5.7278211938768759E+000  3.0189489959599747E+001
       O  1.7139589303219161E+001 -5.4943732856943646E+000  2.9422529558492304E+001
       H  1.9919290866875208E+001  1.7149128465100874E+000  2.1845162862322098E+001
       H  1.9761621993436165E+001  8.8967398602159986E-001  2.3112988662665863E+001
       O  1.9638459862418166E+001  1.7807416645174114E+000  2.2745708029949569E+001
       H  9.9790665172455846E+000  2.7899941421887775E-001 -3.8577115020601416E+000
       H  1.1174752103875575E+001 -4.8139878410845338E-001 -3.0240832048828015E+000
       O  1.0344438886166490E+001 -6.3375607026651248E-001 -3.3884383575743886E+000
       H  8.6915651417816999E+000 -5.5788562513164592E+000 -2.9207882440717596E+000
       H  8.0021495999389174E+000 -6.1561420717311108E+000 -4.1936231416723375E+000
       O  8.8489728173057891E+000 -6.0150222314840658E+000 -3.7616585983217106E+000
       H  3.4466947775890787E+001  1.7244666750181448E+001  1.7176398442658911E+001
       H  3.3509938741447414E+001  1.8209585484303808E+001  1.6705544026885235E+001
       O  3.3588202687083381E+001  1.7582799996873128E+001  1.7396298446265071E+001
       H  1.9010122850788022E+001  1.0436728754531071E+001  9.3886102741449911E+000
       H  1.7561280428174431E+001  1.1155620550502167E+001  9.2404317817167669E+000
       O  1.8054971070734876E+001  1.0299871577187185E+001  9.2115919170552036E+000
       H  7.6571037482000825E+000 -5.3794851371349486E+000  1.0454545164767666E+001
       H  8.0202785426025400E+000 -6.8594153584398594E+000  9.9664427503564443E+000
       O  7.7221509165967621E+000 -6.3004097291306662E+000  1.0681550012644664E+001
       H  1.0492622607516249E+000  4.1403100141050189E+000  7.1229505961872093E+000
       H  1.0011642933910507E+000  2.7949025381200214E+000  6.3999163262622991E+000
       O  4.2186597612453841E-001  3.5069712765730108E+000  6.7137711417929724E+000
       H  1.5258736259269211E+001 -1.2782471387011800E+001 -3.3516241922351417E+000
       H  1.4632563090703954E+001 -1.3714612214030081E+001 -4.4887462844109027E+000
       O  1.4512114810174188E+001 -1.3263037937055914E+001 -3.6771988904076114E+000
       H  2.1670867734563949E+001 -1.7209391235954679E+000 -4.5971370970257824E-001
       H  2.0989162192299801E+001 -2.7573631567301122E+000 -1.4171062066104261E+000