 # Version information for this restart file 
 # current date 2025-03-31 15:34:09.636
 # current working dir /ccc/scratch/cont003/gen2309/sicilana/NPT/128_H2O_4_NaCl_10_wt_673K_1000bar/BATCH_11_MD_T_673_P_1000_steps_1000_dt_0.5_NH2O_128_NaCl_4_abc_17.19_17.19_17.19_wt_9.20
 # Program compiled at                                       2024-10-31 15:04:21
 # Program compiled on                                                 topaze131
 # Program compiled for                                                   x86_64
 # Source code revision number                                                  
 &GLOBAL
   PRINT_LEVEL LOW
   PROJECT_NAME "brines"
   RUN_TYPE MD
   FLUSH_SHOULD_FLUSH T
 &END GLOBAL
 &MOTION
   &MD
     ENSEMBLE NPT_I
     STEPS 1000
     TIMESTEP  4.9999999999999994E-001
     STEP_START_VAL 26050
     TIME_START_VAL  1.3025000000006843E+004
     ECONS_START_VAL -2.4590398713531335E+003
     TEMPERATURE  6.7300000000000011E+002
     &BAROSTAT
       PRESSURE  1.0000000000000000E+003
       TIMECON  9.9999999999999989E+002
       &VELOCITY
          -1.1556544355948798E-005
       &END VELOCITY
       &MASS
           4.2836593343398705E+007
       &END MASS
       &THERMOSTAT
         TYPE CSVR
         &CSVR
           TIMECON  9.6755373060191388E+001
           &THERMOSTAT_ENERGY
              -1.1921349947277571E-004
           &END THERMOSTAT_ENERGY
           &RNG_INIT
 Wiener process for Thermostat # 1        1 F T F   6.5139571041156064E-01        3331028651.0        1519763425.0        2981009255.0          32979729.0        3437781301.0         233288221.0             12345.0             12345.0             12345.0             12345.0             12345.0             12345.0             12345.0             12345.0             12345.0             12345.0             12345.0             12345.0
           &END RNG_INIT
         &END CSVR
       &END THERMOSTAT
     &END BAROSTAT
     &THERMOSTAT
       TYPE CSVR
       &CSVR
         TIMECON  9.9999999999999989E+002
         &THERMOSTAT_ENERGY
            -7.9687363620588014E-001
         &END THERMOSTAT_ENERGY
         &RNG_INIT
 Wiener process for Thermostat # 1        1 F T F   6.7769512788014699E-02        1021588685.0         832300315.0        1581312673.0        2118093834.0        2443992422.0        1550188750.0             12345.0             12345.0             12345.0             12345.0             12345.0             12345.0             12345.0             12345.0             12345.0             12345.0             12345.0             12345.0
         &END RNG_INIT
       &END CSVR
     &END THERMOSTAT
     &AVERAGES T
       &RESTART_AVERAGES
         ITIMES_START 1
         AVECPU  2.2973019319450263E+001
         AVEHUGONIOT  0.0000000000000000E+000
         AVETEMP_BARO  3.0196788270143691E+002
         AVEPOT -2.4597146486716047E+003
         AVEKIN  1.2230340153933741E+000
         AVETEMP  6.5848786970872186E+002
         AVEKIN_QM  0.0000000000000000E+000
         AVETEMP_QM  0.0000000000000000E+000
         AVEVOL  3.8527675872394539E+004
         AVECELL_A  3.3699023535734725E+001
         AVECELL_B  3.3699023535734725E+001
         AVECELL_C  3.3699023535734725E+001
         AVEALPHA  9.0000000000000000E+001
         AVEBETA  9.0000000000000000E+001
         AVEGAMMA  9.0000000000000000E+001
         AVE_ECONS -1.2867000783808606E+002
         AVE_PRESS  3.8286956162052519E+002
         AVE_PXX  3.5844533193203591E+002
       &END RESTART_AVERAGES
     &END AVERAGES
   &END MD
   &PRINT
     &TRAJECTORY SILENT
       FILENAME =brines-1.xyz
       &EACH
         MD 1
       &END EACH
     &END TRAJECTORY
     &CELL SILENT
       FILENAME =brines-1.cell_xyz
       &EACH
         MD 1
       &END EACH
     &END CELL
     &VELOCITIES SILENT
       FILENAME =brines-1.vel
       &EACH
         MD 1
       &END EACH
     &END VELOCITIES
     &FORCES SILENT
       FILENAME =brines-1.force
       &EACH
         MD 1
       &END EACH
     &END FORCES
     &STRESS SILENT
       FILENAME =brines-1.stress
       &EACH
         MD 1
       &END EACH
     &END STRESS
     &RESTART SILENT
       FILENAME =brines-1.restart
       &EACH
         MD 1
       &END EACH
     &END RESTART
     &RESTART_HISTORY SILENT
       &EACH
         MD 50
       &END EACH
     &END RESTART_HISTORY
   &END PRINT
 &END MOTION
 &FORCE_EVAL
   METHOD QS
   STRESS_TENSOR ANALYTICAL
   &DFT
     BASIS_SET_FILE_NAME /ccc/work/cont003/gen2309/sicilana/DATA_CP2K/GTH_BASIS_SETS
     POTENTIAL_FILE_NAME /ccc/work/cont003/gen2309/sicilana/DATA_CP2K/GTH_POTENTIALS
     &SCF
       MAX_SCF 50
       EPS_SCF  9.9999999999999995E-008
       &OT T
         MINIMIZER DIIS
         PRECONDITIONER FULL_SINGLE_INVERSE
       &END OT
       &OUTER_SCF T
         EPS_SCF  9.9999999999999995E-008
         MAX_SCF 50
       &END OUTER_SCF
     &END SCF
     &QS
       EPS_DEFAULT  1.0000000000000000E-014
       EPSFIT  9.9999999999999995E-007
       EPSISO  9.9999999999999998E-013
       EPSRHO0  1.0000000000000000E-008
       QUADRATURE GC_LOG
       EXTRAPOLATION ASPC
       METHOD GAPW
     &END QS
     &MGRID
       NGRIDS 4
       CUTOFF  6.0000000000000000E+002
       REL_CUTOFF  6.0000000000000000E+001
     &END MGRID
     &XC
       DENSITY_CUTOFF  1.0000000000000000E-010
       GRADIENT_CUTOFF  1.0000000000000000E-010
       TAU_CUTOFF  1.0000000000000000E-010
       &XC_FUNCTIONAL NO_SHORTCUT
         &PBE T
           PARAMETRIZATION REVPBE
         &END PBE
       &END XC_FUNCTIONAL
       &VDW_POTENTIAL
         POTENTIAL_TYPE PAIR_POTENTIAL
         &PAIR_POTENTIAL
           R_CUTOFF  1.2000000000000000E+001
           TYPE DFTD3
           PARAMETER_FILE_NAME /ccc/work/cont003/gen2309/sicilana/DATA_CP2K/dftd3.dat
           REFERENCE_FUNCTIONAL "PBE"
           CALCULATE_C9_TERM T
           REFERENCE_C9_TERM T
           VERBOSE_OUTPUT T
           D3_EXCLUDE_KIND 3
         &END PAIR_POTENTIAL
       &END VDW_POTENTIAL
     &END XC
     &REAL_TIME_PROPAGATION
       INITIAL_WFN RT_RESTART
     &END REAL_TIME_PROPAGATION
     &PRINT
       &MO_CUBES SILENT
         WRITE_CUBE F
         NLUMO 10
         NHOMO 2
         &EACH
           MD 200
         &END EACH
       &END MO_CUBES
       &MOMENTS ON
         ADD_LAST NUMERIC
         COMMON_ITERATION_LEVELS 20000
         FILENAME =brines-1.dipoles
         REFERENCE COM
         &EACH
           MD 1
         &END EACH
       &END MOMENTS
     &END PRINT
   &END DFT
   &SUBSYS
     &CELL
       A  1.9393672124084020E+001  0.0000000000000000E+000  0.0000000000000000E+000
       B  0.0000000000000000E+000  1.9393672124084020E+001  0.0000000000000000E+000
       C  0.0000000000000000E+000  0.0000000000000000E+000  1.9393672124084020E+001
       MULTIPLE_UNIT_CELL 1 1 1
     &END CELL
     &COORD
       H  1.0503112186622706E+001  2.3626424345822301E+001  1.2799001039129443E+000
       H  8.9856096249767123E+000  2.3302185085328205E+001  1.5275653307736397E+000
       O  9.7928752471709490E+000  2.3514846150062876E+001  1.9243049775527290E+000
       H  9.0788866683269518E+000 -8.5165543631928191E+000  2.8956171401587905E+000
       H  7.5967853203296558E+000 -8.7937888023771489E+000  3.3379982129215700E+000
       O  8.1698966224455614E+000 -8.1590463522556718E+000  2.8633100189533924E+000
       H -1.0268620206549317E+001  4.8510698327181288E+001  4.9242299371381684E+001
       H -1.0364898198797681E+001  4.9332521790110547E+001  4.7880944874178567E+001
       O -1.0129070409510609E+001  4.8460092438882498E+001  4.8271516808715354E+001
       H  9.4256153766116402E+000  2.3068447175736644E+001  2.5749248203785072E+001
       H  9.5949214399510598E+000  2.3895196783923829E+001  2.4566357254251017E+001
       O  8.9963857338631659E+000  2.3776211970962255E+001  2.5273968733616648E+001
       H -9.2303887935318976E+000  5.3526257066926295E+000  1.1024608870230999E+001
       H -1.0070334980508530E+001  6.2287817161840922E+000  9.9323821394289205E+000
       O -9.1725803107627559E+000  5.8684206022478111E+000  1.0147962649304739E+001
       H  3.3736617594398759E+001  2.9482810325722426E+001 -6.0953393491796213E+000
       H  3.3448640858302419E+001  2.9574394453964807E+001 -7.5854945473831528E+000
       O  3.4054291783012665E+001  2.9909792760403640E+001 -6.8522878105533911E+000
       H -4.7295780960129665E+000  5.8378016919012072E+000  8.8474080423610619E+000
       H -6.2179755638893246E+000  5.3109583337668225E+000  8.9768363639904525E+000
       O -5.2764394337178260E+000  5.0465413948127233E+000  9.0637369455646990E+000
       H  2.6319842129955401E+001  3.3467211847395933E-001 -2.2378918527022454E-001
       H  2.5741599472760964E+001  1.6993066239718249E+000 -8.1002773021236163E-001
       O  2.5528494434694405E+001  8.1482053016611677E-001 -5.5233443099989576E-001
       H  2.2122122431251949E+001  1.3316450584525102E+001  1.5097718333819762E+001
       H  2.2230046321875172E+001  1.4350457602193870E+001  1.3731127743182633E+001
       O  2.2336665556398721E+001  1.4266710142299139E+001  1.4726479609191378E+001
       H  2.5190383476989091E+001 -4.0452797486896463E-001  2.2656949114603545E+001
       H  2.4457154858334782E+001 -1.6942919669184624E+000  2.1837809001971376E+001
       O  2.4310963757354678E+001 -9.5246779971554718E-001  2.2424411599143610E+001
       H  6.3821614764020609E+000 -5.3934071971841913E-001 -1.0105764498501827E+001
       H  5.6587853994756578E+000  5.3488638922285510E-002 -8.8349368320244004E+000
       O  5.9593446645460713E+000  2.6112698108200572E-001 -9.6562725190399519E+000
       H  1.2799835945484197E+001  2.9052818523653570E+000  2.2906554760548136E+001
       H  1.1348728535922604E+001  3.5963547755982961E+000  2.2741090942187615E+001
       O  1.2241543906270936E+001  3.7267919476834983E+000  2.3059024446303805E+001
       H  1.7414124621212789E+001  1.4265066096213696E+001  5.3313905371708641E+000
       H  1.7674554710518755E+001  1.5625559535558748E+001  4.7330854798770057E+000
       O  1.7160530444933226E+001  1.4787695608333763E+001  4.6216057479599026E+000
       H  5.9849832513749881E+000 -1.0649115178576270E+001 -9.0859509704819441E-001
       H  6.2919141616079566E+000 -1.1092672814483748E+001 -2.2715015994609264E+000
       O  6.5934704624258655E+000 -1.0454848845231053E+001 -1.5771319045303220E+000
       H  3.0901986140536618E+001  3.5903852582568710E+001  4.3955884519595007E-001
       H  3.1444924737651395E+001  3.5906722483517427E+001 -9.6753561744810079E-001
       O  3.0591896778621621E+001  3.5925707276449828E+001 -5.2261296542974700E-001
       H  1.4242639819439228E+001  1.7588278940146125E+000 -1.0607554997715974E+001
       H  1.3738437698747832E+001  3.2093178103802398E+000 -1.0474204665681420E+001
       O  1.3358582148496591E+001  2.2841315294225746E+000 -1.0347440513601498E+001
       H  2.0370521022638815E+001  1.6098105853953926E+000  6.0414543961132052E+000
       H  2.0527069803807851E+001  3.3668030414221367E-001  6.9034325159330185E+000
       O  2.1008319641867281E+001  1.1167924942646046E+000  6.5627131125044889E+000
       H  9.4602140600088038E+000 -2.5133954135848491E+000  1.8463147587955063E+001
       H  9.5490036801073330E+000 -1.2032350019544178E+000  1.7843850756395192E+001
       O  8.9939778846155409E+000 -1.9661452487548772E+000  1.7801166385471195E+001
       H  4.4994627859230416E+000  1.8319121550760382E+001  7.0100898879121276E+000
       H  5.1667314107115958E+000  1.6922444106921755E+001  7.2476942196588672E+000
       O  4.4050152447234687E+000  1.7484386013328741E+001  7.5061619311573207E+000
       H  2.1412770220092206E+001  2.6173280740724856E+001  3.8462463404001879E+000
       H  2.0203951706420188E+001  2.6612022518847922E+001  3.0893035643289539E+000
       O  2.1002668480378425E+001  2.6094853743010226E+001  2.9607200333498267E+000
       H  1.8073232230506619E+001  1.1124215376564701E+001  2.0627412016177118E+001
       H  1.6851516117841840E+001  1.1960643494231858E+001  2.0329281070184727E+001
       O  1.7281980020161981E+001  1.1402026174411638E+001  2.1088856168811482E+001
       H  1.0187842012940699E+001 -1.2120339657875899E+001  1.6804932500845656E+001
       H  1.0946204078980873E+001 -1.2717257852598104E+001  1.8176623031085295E+001
       O  1.0157468031254222E+001 -1.2278764754208497E+001  1.7788417239413221E+001
       H  2.8778460784775781E+001  1.3690646176337602E+001  2.4148918972710572E+001
       H  3.0019254669008983E+001  1.4416678496932517E+001  2.3546545028100859E+001
       O  2.9181439579920710E+001  1.4569410119077988E+001  2.3929815877263557E+001
       H -1.6646613505421747E+001  8.4913655449418410E+000  1.4308376786139634E+001
       H -1.8129379705155767E+001  8.1843301384011795E+000  1.4690909260639875E+001
       O -1.7229646714589769E+001  8.2252504631889849E+000  1.5094050990472986E+001
       H  1.9822085887395899E+000  6.5181006212596593E+000  7.1335121279615610E+000
       H  1.7076471810443075E+000  5.3103984683825747E+000  6.3795552542494205E+000
       O  1.2866208514861086E+000  6.1166427788800002E+000  6.6488451847929264E+000
       H -8.8776414872383231E+000 -1.6012274075100937E+001  1.7119829552020249E+001
       H -7.5795381890916715E+000 -1.5645777237126341E+001  1.7692943800377815E+001
       O -8.4467637417608081E+000 -1.5997793303114129E+001  1.7989820086953223E+001
       H  2.7948402641987546E+001  9.6557402068224345E+000 -6.9867084734022677E-001
       H  2.7903360022907727E+001  1.1307479782641904E+001 -6.4030847394644508E-001
       O  2.8451911167357018E+001  1.0542520994880569E+001 -4.4894429116802187E-001
       H  1.3161081729287066E+001 -2.8932881255232674E+000  2.5808316058912300E+001
       H  1.2678204124740420E+001 -4.2165577443099442E+000  2.6263317345016308E+001
       O  1.2576586209288998E+001 -3.3035050002660986E+000  2.6525686173204907E+001
       H -6.9057164089031797E+000  9.1542176374122306E+000 -2.7116684558143658E+000
       H -6.3005477347647778E+000  8.8961662455748698E+000 -1.3381166609359167E+000
       O -6.1506718180121185E+000  8.7005446934462736E+000 -2.2700832322455433E+000
       H  6.5346038322713307E+000  5.2178595684254097E+000  1.3278414739877147E+000
       H  7.3403404697026797E+000  5.9464357260620702E+000  3.4198668509339475E-001
       O  6.7566776715766963E+000  5.1267519036345677E+000  3.4005947345293980E-001
       H  8.2438614971612323E-001 -1.9311924075493681E+000  3.4843233111020475E+000
       H  8.6938333317252603E-001 -5.6382623487812544E-001  2.6555722904825583E+000
       O  1.2641793644449728E+000 -1.3900808321152922E+000  2.7452798283991995E+000
       H -4.1805319097092308E+000  2.2279375381812741E+001 -4.8716002071985107E+000
       H -2.5924569786174052E+000  2.1830890386253941E+001 -4.6524148606243303E+000
       O -3.2844003651785023E+000  2.2581537258662713E+001 -4.6501274117208959E+000
       H  2.3935301211024161E+001  2.5804102055420348E+001  1.1404314748548709E+001
       H  2.2433966375978159E+001  2.5920953830716222E+001  1.1643624069391617E+001
       O  2.3259774307305680E+001  2.6371113147088828E+001  1.1759830495757233E+001
       H  1.9999899911059686E+000 -2.1233238025797963E+001 -6.8747551293177347E+000
       H  1.9808738536927719E+000 -1.9706245288390253E+001 -6.7753787321408874E+000
       O  2.4320635568698874E+000 -2.0494705159148960E+001 -6.5098437447807127E+000
       H  8.4044653315767679E+000  3.2167348641658884E+000  1.0512095607327041E+001
       H  8.6769352931124253E+000  3.1914994729051478E+000  1.2037314133639745E+001
       O  8.7787875483157443E+000  3.7066788003612272E+000  1.1224742067578484E+001
       H  1.2547119286285838E+001  2.0193337083056207E+001 -1.8040460223123752E+001
       H  1.1845386196650047E+001  2.1215004517254950E+001 -1.8916389910867199E+001
       O  1.2704786027344111E+001  2.0683899568868735E+001 -1.8894277760568560E+001
       H  1.4450991759476047E+001 -8.8215027119887193E+000 -1.7037447819587332E+001
       H  1.4828753412557665E+001 -7.2488056624593957E+000 -1.7201520899630420E+001
       O  1.4366376007368451E+001 -8.0068806782656363E+000 -1.7595892224064585E+001
       H  1.3681743026783323E+001 -3.4523140793299079E+000  2.9722042500187182E+001
       H  1.3684660571161073E+001 -2.3264844769757032E+000  2.8783437155108171E+001
       O  1.4161147334363731E+001 -3.0798654697735253E+000  2.8980645000532654E+001
       H  2.2810418029593535E+001  6.0314558159302507E+000  1.6645637317030104E+001
       H  2.2361482304726838E+001  5.5111590222916824E+000  1.8133996204140995E+001
       O  2.2057516638425451E+001  5.5880272997154821E+000  1.7145093714721881E+001
       H  1.5682868776767982E+001  2.2644424565605000E+001  1.2228888779263247E+001
       H  1.5089844463741949E+001  2.1711754969011366E+001  1.1186283921778990E+001
       O  1.5942604074301018E+001  2.1923893887270864E+001  1.1576564357417643E+001
       H  2.9361679301462202E+000  2.4779357997717208E+000  3.0000245641316168E+000
       H  3.2518483262003173E+000  2.2598845664969693E+000  4.4535333070449710E+000
       O  3.3340021391539252E+000  3.0089708037603811E+000  3.7462160413525045E+000
       H  1.8124420290695532E+001  2.3354867794802971E+001 -7.5059459446728036E+000
       H  1.8820387331384936E+001  2.2877738711576789E+001 -6.2003970702855407E+000
       O  1.8956654731709751E+001  2.3041125321850597E+001 -7.1231898290511548E+000
       H  2.7443598566111733E+000  3.6063612547407317E+001  1.5410365000406189E+001
       H  3.5091138153460348E+000  3.5086840018455518E+001  1.6138319055881968E+001
       O  3.2889531648422494E+000  3.6066443382607815E+001  1.6203855361007577E+001
       H  1.3228430972184031E+001  1.0657118560451271E+000  1.1633693293373344E+001
       H  1.2164586255609194E+001  1.8486416132929111E+000  1.1160047023249403E+001
       O  1.2528321679783772E+001  1.5514680632089057E+000  1.2003209601250935E+001
       H  1.3925942963293936E+001  1.7434497112226982E+001 -1.8057211369374702E+001
       H  1.3547139838483906E+001  1.6975471653784734E+001 -1.6738031598369609E+001
       O  1.3313937790463546E+001  1.6829353811083251E+001 -1.7672449745500664E+001
       H -9.2942064872660453E+000  1.4949405184815928E+001  6.8703428877470092E+000
       H -8.7199690170427786E+000  1.5450837277475475E+001  8.0031476404775717E+000
       O -9.5812396701162683E+000  1.5093015803409907E+001  7.7705844649403470E+000
       H  1.0021782954524753E+001  3.7134211294469694E+001  1.4934419343254385E+001
       H  9.7992819410502623E+000  3.6091103304695324E+001  1.5909930298930371E+001
       O  1.0383871569704480E+001  3.6294239032150841E+001  1.5181982658727529E+001
       H  6.0205616854917618E+000  5.5525534423388674E+000  1.7500425175572317E+001
       H  6.3127521788315972E+000  5.6925086053173484E+000  1.5988269107803463E+001
       O  5.6492741882754096E+000  5.7444136013269134E+000  1.6686533656498373E+001
       H -1.5930959046716058E+000  2.1157468136140430E+001 -8.4632578165819705E-001
       H -1.4691551476529108E+000  1.9464293990412013E+001 -1.1794887060286265E+000
       O -1.3209084409747764E+000  2.0227961594014392E+001 -6.1644546199956707E-001
       H -6.7660681126610092E+000  1.8703010263992653E+001  2.3391174004388645E+001
       H -5.7917027953442783E+000  1.9186199874086668E+001  2.4400600041001251E+001
       O -5.8467620220724612E+000  1.8731269522605288E+001  2.3496950968726882E+001
       H  1.9620917369544191E+001 -3.7793617260408601E+000  7.1707536950621664E+000
       H  1.9427232643943324E+001 -2.3044550790203377E+000  7.0029974997890845E+000
       O  1.9208930524266389E+001 -3.1834850620655368E+000  6.5540659872659006E+000
       H -3.2730956343745419E+001  4.6879939053030562E+000  2.3022220324660481E+001
       H -3.4151276317270195E+001  4.7265836039456479E+000  2.2654976970922238E+001
       O -3.3315252221306686E+001  5.0512965230077169E+000  2.2388683830688716E+001
       H  1.0240859572645826E+001  9.2693905403207957E+000  1.2829796824748335E+001
       H  1.0032332257616009E+001  1.0867737311412073E+001  1.2954039016592489E+001
       O  1.0184760603785190E+001  1.0142992948501060E+001  1.2341613917894223E+001
       H  1.8014613513800931E+001 -1.7482580871188286E+001  2.3368477382657399E+001
       H  1.7352217079586705E+001 -1.6469204259268867E+001  2.4430462306558752E+001
       O  1.8226500830617773E+001 -1.6896070427333896E+001  2.4105916040211540E+001
       H -4.7825078730304038E-001  1.5982749382033337E+001 -5.3427051736757676E+000
       H -5.0447694904798956E-001  1.7452877489145195E+001 -5.0266913832026798E+000
       O -7.4840818448031576E-001  1.6811058267635644E+001 -5.7590690812543253E+000
       H  1.8370123410293676E+001  1.0162824467680318E+001  1.6646921064675333E+001
       H  1.9841460841224155E+001  9.9452046121654405E+000  1.6749559774326602E+001
       O  1.9205049520162728E+001  1.0391387441747694E+001  1.6152111899472761E+001
       H  2.6525030359409394E+000  9.4690613718926642E+000  2.5574257657116554E+001
       H  3.4366430268294117E+000  8.9804801177282734E+000  2.6820945891325028E+001
       O  2.5838228677983723E+000  8.8909493119782947E+000  2.6446349370661590E+001
       H  2.3293627578250251E+000 -7.6652529404966527E+000 -1.7162192982101288E+000
       H  2.6952215912857587E+000 -6.3951193372940391E+000 -1.4504248184012771E+000
       O  3.1320344953238473E+000 -7.1257613038601697E+000 -1.8733301445378170E+000
       H  3.3690394159767347E+000  1.0321261054586071E+001  1.7725770051397582E+001
       H  2.6703388223872038E+000  9.1353387422421815E+000  1.7002302770658616E+001
       O  2.8183519453957477E+000  9.5434695129323472E+000  1.7878601135414993E+001
       H  7.6684639974818687E+000  2.4815028406551907E+001  3.3562612403960166E+001
       H  6.5271826060316540E+000  2.3775910132423160E+001  3.3410506176402407E+001
       O  7.0349433392440943E+000  2.4281050476824852E+001  3.4035883772677572E+001
       H  8.3436688982589651E+000  3.3528182929210409E+001 -2.5928077005183416E+000
       H  9.7395934069471330E+000  3.3675812777359852E+001 -1.8180812183508837E+000
       O  9.1128743390015980E+000  3.3030648293333684E+001 -2.2729260824012019E+000
       H  2.5581548184077957E-001  1.0738266199631314E+001  1.1898850344542437E+001
       H -3.8542372081592291E-001  1.2125681358629594E+001  1.2503690059111349E+001
       O -1.7994528456825612E-001  1.1624022945991356E+001  1.1641394345638492E+001
       H  1.5074304515922941E+001  1.2702310146303905E+001 -1.9671119504963883E+001
       H  1.6349847703411118E+001  1.3345274772264824E+001 -2.0453964724638492E+001
       O  1.6025896683303465E+001  1.3047859466104258E+001 -1.9526121481906365E+001
       H  1.2880992377598895E+001 -6.6415681282498595E-001  1.6960939387317374E+001
       H  1.2657592552544340E+001 -1.8881625979289254E+000  1.6013583355922904E+001
       O  1.3253073876949125E+001 -1.4801179853210653E+000  1.6571979171270314E+001
       H  1.6100202387232397E+001  8.2965676594393791E+000  2.1389855606274939E+001
       H  1.5537579404929286E+001  6.9000539791383648E+000  2.1870728821866578E+001
       O  1.5547086694080292E+001  7.4531112816547420E+000  2.1116125712096089E+001
       H  2.9179724202301053E+001 -7.6257307388204831E-001  2.2847297292564903E+001
       H  2.9767791021688573E+001 -2.2679201666813764E+000  2.2648861044510749E+001
       O  2.9821739630263547E+001 -1.3610647431310181E+000  2.2443263652222118E+001
       H  2.2309239720173217E+001  1.5505067825341301E+001  1.8748782638547947E+001
       H  2.0923448038358728E+001  1.5447194258477582E+001  1.8087127493805554E+001
       O  2.1588933884331762E+001  1.4880321332197068E+001  1.8570310094425874E+001
       H  1.1230339367713073E+001  4.5929574027395610E+000 -5.6789718602940571E+000
       H  1.0736996499002961E+001  5.5378537425736116E+000 -4.5966250775924751E+000
       O  1.0466481451543922E+001  5.1532939508827358E+000 -5.4907526290466810E+000
       H -2.7246267565523490E+000  1.2093005560594912E+001 -6.0492481697393776E+000
       H -2.2881001993914669E+000  1.3424038713196611E+001 -5.4579701561894867E+000
       O -1.9451853522313725E+000  1.2575695846384624E+001 -5.6510293007974006E+000
       H  7.7182339220866423E+000  7.3561518074604582E+000  1.3493190601893589E+001
       H  8.8346999047710817E+000  6.4437492021724649E+000  1.2864995040994895E+001
       O  7.9043849060373148E+000  6.7820406362872125E+000  1.2765940058357817E+001
       H -1.5402784612021467E+001 -4.0906668947863567E+000  4.3689843226811780E+000
       H -1.6735333145341752E+001 -3.0630190140362363E+000  4.6673667142050306E+000
       O -1.6401909731740506E+001 -3.9943744796108533E+000  4.5626943308103529E+000
       H -5.1142430769599279E-001  7.2634201963607756E+000 -8.3970093389027696E+000
       H  4.3232983829799804E-001  8.5126348163306940E+000 -8.9127453148814837E+000
       O -2.6411506407134616E-001  8.2118735916689243E+000 -8.1888191797754022E+000
       H  1.3964370211568314E+001  8.8361148969750793E+000  8.0640692938188820E+000
       H  1.3940144316289622E+001  1.0294390130857753E+001  8.3551587554442541E+000
       O  1.4166774543328678E+001  9.6491308049874025E+000  7.6782541318070878E+000
       H  2.2667779057315913E+000  1.0544179577171610E+001  2.1017111378638065E+000
       H  2.3066642320156450E+000  1.1963455284317792E+001  2.6759275631973978E+000
       O  2.9339345675003425E+000  1.1299174921929932E+001  2.3847918540869366E+000
       H  1.2438637246307781E+001  1.5500630701951751E+001 -7.1065171453742355E+000
       H  1.3679121151173568E+001  1.4769613742507101E+001 -6.7444672048021577E+000
       O  1.3391886966273621E+001  1.5710810698268153E+001 -6.8588049910338462E+000
       H  1.5817399373922870E+001  1.9789502304986282E+001  1.3136090169333492E+001
       H  1.4953277153665827E+001  1.9149449507749534E+001  1.4209183926499056E+001
       O  1.5079054513091927E+001  2.0004128598292116E+001  1.3767317370925658E+001
       H  6.0893137679934632E+000 -5.4881155279603622E+000 -1.2969969455653141E+001
       H  5.6480804510474574E+000 -5.0511548267370321E+000 -1.1604620049417166E+001
       O  5.6914696516890650E+000 -4.7044955639737811E+000 -1.2529390174452665E+001
       H  6.3594178427938344E+000  1.1391929342687307E+001  5.7631272029388070E+000
       H  6.3374917300145004E+000  1.2430015530425695E+001  4.6492882071325203E+000
       O  6.2667985010301308E+000  1.2320940118746419E+001  5.6355139365186426E+000
       H  1.1806201184852092E+001  7.6880305989257405E+000  1.0162267537750147E+001
       H  1.1164592944632048E+001  9.0084657636434304E+000  9.7554771777432556E+000
       O  1.2127915923302490E+001  8.6239127964621023E+000  9.9032907079671233E+000
       H  8.6855890265850599E-001  1.3515028876962927E+000 -9.0055202101386342E+000
       H  3.2913961606404663E-001  2.0556649096026671E+000 -7.8347923839206075E+000
       O  6.6808689580476688E-001  1.1984618974463650E+000 -7.9833292310764854E+000
       H  2.1094240692200525E+000  1.4284241618395610E+001  6.5730019339677996E+000
       H  2.2499394258555920E+000  1.3552610501273433E+001  7.9748669806915311E+000
       O  1.6033488626364414E+000  1.4174738946757438E+001  7.4437898064683923E+000
       H -6.2786852489961378E+000 -6.0157452221387304E+000  1.8192949969289103E+001
       H -7.3723269099578310E+000 -6.8567987474668568E+000  1.7699620531639432E+001
       O -6.8577447396072344E+000 -6.1280241864098626E+000  1.7430197818452559E+001
       H  1.9435796890634471E+001  2.3535297076150665E+000  1.5574513033734016E+001
       H  1.9201382057492136E+001  1.0073268918612168E+000  1.4883485425208674E+001
       O  1.8815999775758222E+001  1.8927844217869421E+000  1.4937122320727166E+001
       H  1.6533364321616794E+001 -4.5008473554985091E+000  2.9224184758082888E+001
       H  1.8087904700325144E+001 -4.7830935584877974E+000  2.9345494547088222E+001
       O  1.7298587038453149E+001 -4.3547485307493412E+000  2.9744807585209454E+001
       H  1.9560643791761319E+001  8.0003300336112626E-001  2.0050810596763355E+001
       H  1.9236389254039029E+001  2.1365659597608704E+000  2.0826038364102569E+001
       O  1.9904425742469464E+001  1.4178589104976316E+000  2.0722997568376076E+001
       H  9.4052051680715962E+000  2.0999873501566415E+000 -4.1968802178747602E+000
       H  1.0432056856195532E+001  1.9003154776129210E+000 -5.3281045432123868E+000
       O  9.6209287025386008E+000  2.2748762461193146E+000 -5.1353805042367009E+000
       H  1.1102405293221070E+001 -6.4969083373866665E+000 -5.2002780940533988E+000
       H  1.0335595283719645E+001 -6.0902628292219223E+000 -3.9482214880609399E+000
       O  1.0146105214715144E+001 -6.5274964215928319E+000 -4.8060142578826195E+000
       H  3.5445655035192324E+001  1.5368404355803323E+001  1.3356152464365083E+001
       H  3.6078960774055453E+001  1.5510865517174334E+001  1.4686102315680934E+001
       O  3.5581149592206003E+001  1.4909354520700898E+001  1.4213667017682246E+001
       H  2.0032337978000051E+001  9.7857618632248293E+000  8.1743482945317947E+000
       H  1.9706511034343006E+001  8.2930325109614120E+000  8.0849790139435402E+000
       O  1.9575038341426900E+001  9.0654473523405787E+000  8.6074222911115363E+000
       H  8.0942682453309533E+000 -7.1911175996995533E+000  7.9816220021278514E+000
       H  9.3593692001146067E+000 -6.4900920507266688E+000  8.1130357193900515E+000
       O  9.0142119472223179E+000 -7.4370354218649855E+000  8.2114188421574177E+000
       H -5.4974503813087798E+000  5.8802816073763653E+000  4.2378345297284810E+000
       H -4.2664275596048071E+000  6.5144993062351997E+000  4.9949981220733255E+000
       O -4.6459008808603182E+000  6.3064455130175601E+000  4.1310778141483278E+000
       H  1.4199188002119771E+001 -1.4083647937056480E+001 -2.6453276522186311E+000
       H  1.3355904583421342E+001 -1.2812789912203399E+001 -3.1398026536891672E+000