 # Version information for this restart file 
 # current date 2025-03-31 22:32:57.941
 # current working dir /ccc/scratch/cont003/gen2309/sicilana/NPT/128_H2O_4_NaCl_10_wt_673K_1000bar/BATCH_11_MD_T_673_P_1000_steps_1000_dt_0.5_NH2O_128_NaCl_4_abc_17.19_17.19_17.19_wt_9.20
 # Program compiled at                                       2024-10-31 15:04:21
 # Program compiled on                                                 topaze131
 # Program compiled for                                                   x86_64
 # Source code revision number                                                  
 &GLOBAL
   PRINT_LEVEL LOW
   PROJECT_NAME "brines"
   RUN_TYPE MD
   FLUSH_SHOULD_FLUSH T
 &END GLOBAL
 &MOTION
   &MD
     ENSEMBLE NPT_I
     STEPS 1000
     TIMESTEP  4.9999999999999994E-001
     STEP_START_VAL 26800
     TIME_START_VAL  1.3400000000006266E+004
     ECONS_START_VAL -2.4590398713531335E+003
     TEMPERATURE  6.7300000000000011E+002
     &BAROSTAT
       PRESSURE  1.0000000000000000E+003
       TIMECON  9.9999999999999989E+002
       &VELOCITY
           8.5778236233232016E-006
       &END VELOCITY
       &MASS
           4.2836593343398705E+007
       &END MASS
       &THERMOSTAT
         TYPE CSVR
         &CSVR
           TIMECON  9.6755373060191388E+001
           &THERMOSTAT_ENERGY
               1.6583710325458513E-003
           &END THERMOSTAT_ENERGY
           &RNG_INIT
 Wiener process for Thermostat # 1        1 F T F  -1.2490872766714052E+00        4278325692.0         570117499.0        3776465062.0        3110005702.0        3346476388.0        2512880654.0             12345.0             12345.0             12345.0             12345.0             12345.0             12345.0             12345.0             12345.0             12345.0             12345.0             12345.0             12345.0
           &END RNG_INIT
         &END CSVR
       &END THERMOSTAT
     &END BAROSTAT
     &THERMOSTAT
       TYPE CSVR
       &CSVR
         TIMECON  9.9999999999999989E+002
         &THERMOSTAT_ENERGY
            -8.1522521327859310E-001
         &END THERMOSTAT_ENERGY
         &RNG_INIT
 Wiener process for Thermostat # 1        1 F T F   1.9798173107093637E+00        3295772969.0         798707668.0         914634099.0        1607580642.0        2190239953.0        3781538927.0             12345.0             12345.0             12345.0             12345.0             12345.0             12345.0             12345.0             12345.0             12345.0             12345.0             12345.0             12345.0
         &END RNG_INIT
       &END CSVR
     &END THERMOSTAT
     &AVERAGES T
       &RESTART_AVERAGES
         ITIMES_START 1
         AVECPU  2.3267751086906777E+001
         AVEHUGONIOT  0.0000000000000000E+000
         AVETEMP_BARO  3.0755142326277706E+002
         AVEPOT -2.4597232314959651E+003
         AVEKIN  1.2213966736417210E+000
         AVETEMP  6.5760631640075303E+002
         AVEKIN_QM  0.0000000000000000E+000
         AVETEMP_QM  0.0000000000000000E+000
         AVEVOL  3.8709776074724701E+004
         AVECELL_A  3.3751517426308553E+001
         AVECELL_B  3.3751517426308553E+001
         AVECELL_C  3.3751517426308553E+001
         AVEALPHA  9.0000000000000000E+001
         AVEBETA  9.0000000000000000E+001
         AVEGAMMA  9.0000000000000000E+001
         AVE_ECONS -1.3533323781663032E+002
         AVE_PRESS  4.0226992788443840E+002
         AVE_PXX  3.7786679597536602E+002
       &END RESTART_AVERAGES
     &END AVERAGES
   &END MD
   &PRINT
     &TRAJECTORY SILENT
       FILENAME =brines-1.xyz
       &EACH
         MD 1
       &END EACH
     &END TRAJECTORY
     &CELL SILENT
       FILENAME =brines-1.cell_xyz
       &EACH
         MD 1
       &END EACH
     &END CELL
     &VELOCITIES SILENT
       FILENAME =brines-1.vel
       &EACH
         MD 1
       &END EACH
     &END VELOCITIES
     &FORCES SILENT
       FILENAME =brines-1.force
       &EACH
         MD 1
       &END EACH
     &END FORCES
     &STRESS SILENT
       FILENAME =brines-1.stress
       &EACH
         MD 1
       &END EACH
     &END STRESS
     &RESTART SILENT
       FILENAME =brines-1.restart
       &EACH
         MD 1
       &END EACH
     &END RESTART
     &RESTART_HISTORY SILENT
       &EACH
         MD 50
       &END EACH
     &END RESTART_HISTORY
   &END PRINT
 &END MOTION
 &FORCE_EVAL
   METHOD QS
   STRESS_TENSOR ANALYTICAL
   &DFT
     BASIS_SET_FILE_NAME /ccc/work/cont003/gen2309/sicilana/DATA_CP2K/GTH_BASIS_SETS
     POTENTIAL_FILE_NAME /ccc/work/cont003/gen2309/sicilana/DATA_CP2K/GTH_POTENTIALS
     &SCF
       MAX_SCF 50
       EPS_SCF  9.9999999999999995E-008
       &OT T
         MINIMIZER DIIS
         PRECONDITIONER FULL_SINGLE_INVERSE
       &END OT
       &OUTER_SCF T
         EPS_SCF  9.9999999999999995E-008
         MAX_SCF 50
       &END OUTER_SCF
     &END SCF
     &QS
       EPS_DEFAULT  1.0000000000000000E-014
       EPSFIT  9.9999999999999995E-007
       EPSISO  9.9999999999999998E-013
       EPSRHO0  1.0000000000000000E-008
       QUADRATURE GC_LOG
       EXTRAPOLATION ASPC
       METHOD GAPW
     &END QS
     &MGRID
       NGRIDS 4
       CUTOFF  6.0000000000000000E+002
       REL_CUTOFF  6.0000000000000000E+001
     &END MGRID
     &XC
       DENSITY_CUTOFF  1.0000000000000000E-010
       GRADIENT_CUTOFF  1.0000000000000000E-010
       TAU_CUTOFF  1.0000000000000000E-010
       &XC_FUNCTIONAL NO_SHORTCUT
         &PBE T
           PARAMETRIZATION REVPBE
         &END PBE
       &END XC_FUNCTIONAL
       &VDW_POTENTIAL
         POTENTIAL_TYPE PAIR_POTENTIAL
         &PAIR_POTENTIAL
           R_CUTOFF  1.2000000000000000E+001
           TYPE DFTD3
           PARAMETER_FILE_NAME /ccc/work/cont003/gen2309/sicilana/DATA_CP2K/dftd3.dat
           REFERENCE_FUNCTIONAL "PBE"
           CALCULATE_C9_TERM T
           REFERENCE_C9_TERM T
           VERBOSE_OUTPUT T
           D3_EXCLUDE_KIND 3
         &END PAIR_POTENTIAL
       &END VDW_POTENTIAL
     &END XC
     &REAL_TIME_PROPAGATION
       INITIAL_WFN RT_RESTART
     &END REAL_TIME_PROPAGATION
     &PRINT
       &MO_CUBES SILENT
         WRITE_CUBE F
         NLUMO 10
         NHOMO 2
         &EACH
           MD 200
         &END EACH
       &END MO_CUBES
       &MOMENTS ON
         ADD_LAST NUMERIC
         COMMON_ITERATION_LEVELS 20000
         FILENAME =brines-1.dipoles
         REFERENCE COM
         &EACH
           MD 1
         &END EACH
       &END MOMENTS
     &END PRINT
   &END DFT
   &SUBSYS
     &CELL
       A  1.8912451928907544E+001  0.0000000000000000E+000  0.0000000000000000E+000
       B  0.0000000000000000E+000  1.8912451928907544E+001  0.0000000000000000E+000
       C  0.0000000000000000E+000  0.0000000000000000E+000  1.8912451928907544E+001
       MULTIPLE_UNIT_CELL 1 1 1
     &END CELL
     &COORD
       H  1.2806731176041831E+001  2.2055474248315015E+001  2.4333836971412230E+000
       H  1.3456255318830793E+001  2.0722244576628242E+001  2.9344095118044820E+000
       O  1.3279121283703176E+001  2.1667149862584040E+001  3.1317732903690150E+000
       H  7.7917940455317467E+000 -8.2822599063569946E+000  2.5079279614564154E+000
       H  6.8437160429987269E+000 -9.3209735975622259E+000  2.1054034991694777E+000
       O  6.9402757297711357E+000 -8.6000099750718988E+000  2.7875130686666871E+000
       H -9.7418320462043013E+000  4.7721019047182111E+001  4.7832506981579726E+001
       H -9.4233915231418166E+000  4.6258884759352249E+001  4.7052985072462469E+001
       O -9.7404573415486055E+000  4.6748171173451858E+001  4.7843609892621998E+001
       H  9.0974112828609730E+000  2.5696060157430512E+001  2.3466039269485279E+001
       H  9.1356359645674292E+000  2.4183236569774436E+001  2.3185926036029002E+001
       O  8.8108734097826567E+000  2.4805926649325979E+001  2.3849236505151968E+001
       H -1.4127827661002614E+001  5.2017780814052506E+000  9.3675301428624440E+000
       H -1.3668824760544133E+001  5.8847012235524900E+000  1.0515407430992495E+001
       O -1.3672185588737490E+001  4.9947367083885705E+000  1.0212969617140732E+001
       H  3.4415200614676110E+001  2.6998201379399031E+001 -5.8786544468315087E+000
       H  3.3404795180578262E+001  2.7377197459016141E+001 -6.9874707897914439E+000
       O  3.4365751207014206E+001  2.7452481794689454E+001 -6.7345734918187974E+000
       H -6.9899374544868689E+000  3.5437667849572940E+000  9.4504922322826808E+000
       H -5.6188844230495212E+000  4.3060543159595372E+000  9.2397170197315219E+000
       O -6.0649916183940320E+000  3.6041743162352429E+000  9.7169531270807603E+000
       H  2.4948089606659927E+001 -1.8518607631038044E+000 -4.9767633779439748E+000
       H  2.5560487990988531E+001 -5.2438225680270112E-001 -5.4542326344044145E+000
       O  2.5129299631190449E+001 -9.7074837702234540E-001 -4.7266787748863335E+000
       H  2.0253481108553821E+001  1.2383504498145410E+001  1.5016643271431731E+001
       H  2.1316147361982040E+001  1.2616376944288472E+001  1.3999720801209659E+001
       O  2.0566979989965169E+001  1.3072867664997334E+001  1.4429407423794469E+001
       H  2.4031019955856191E+001  5.7011998307906854E-002  2.4595158070179373E+001
       H  2.5213831950864677E+001 -1.5773819463961533E-001  2.3522174632697663E+001
       O  2.4670863850936591E+001 -6.1530694771937322E-001  2.4186695917020472E+001
       H  3.6153079596665907E+000  1.6924755257557205E+000 -1.1619859781222212E+001
       H  2.7928208148894931E+000  8.3835642741817684E-001 -1.2700551645970243E+001
       O  3.5703366500860305E+000  8.2615834318715098E-001 -1.2103829697983281E+001
       H  1.3254148738069494E+001  5.4085071438558758E+000  2.5601640275213672E+001
       H  1.1950231100467013E+001  4.7393876540075128E+000  2.5465856174316386E+001
       O  1.2327181750158580E+001  5.5907963004059553E+000  2.5619013702930548E+001
       H  1.8196620469071778E+001  1.3621120175056479E+001  3.6422023473882605E+000
       H  1.6980910294124225E+001  1.4352308699860590E+001  3.7581141823201909E+000
       O  1.7357050236351018E+001  1.3484193483689586E+001  3.9910805569153993E+000
       H  7.4519922033840382E+000 -1.1242583569055427E+001 -1.1195577386531710E+000
       H  7.2692467105386180E+000 -9.9037355355492203E+000 -1.5573148452713237E+000
       O  7.9838806395603594E+000 -1.0406477448021143E+001 -1.1894896205586367E+000
       H  3.1230622569394068E+001  3.6894330247107639E+001 -5.5559443529288421E-001
       H  2.9909706037707227E+001  3.7266356553336010E+001 -2.5566155632137447E-002
       O  3.0591530770127207E+001  3.7619541636175981E+001 -5.6520543253999111E-001
       H  1.5428862768475035E+001  2.3582381068705947E+000 -1.1564664714721875E+001
       H  1.4762170142932550E+001  1.5592556455833793E+000 -1.0435903182566397E+001
       O  1.5314730164300522E+001  1.5092940204854017E+000 -1.1270589848087775E+001
       H  1.8789065019699326E+001  6.5406082388636755E-001  5.3818322878105214E+000
       H  1.9592856906292212E+001  3.3459486505060376E-001  6.5568357620282649E+000
       O  1.9687021085216806E+001  2.7450799403268589E-001  5.5563763765329526E+000
       H  7.7919717556161308E+000  3.2437518501084678E-001  1.6017453232986846E+001
       H  8.5825137385557682E+000  1.3332206095537160E+000  1.6938111416686571E+001
       O  7.9944253725992835E+000  1.2955615142619248E+000  1.6153677422249828E+001
       H  6.3114886862229351E+000  1.6970755655042197E+001  7.2226844542719304E+000
       H  6.0078708849753122E+000  1.5895969751781291E+001  8.2238593650754552E+000
       O  5.9786452325509902E+000  1.6829997206583929E+001  8.0905641543865663E+000
       H  1.8623042266094721E+001  2.6639733973576714E+001  6.6181244744756917E-001
       H  1.7813906211933681E+001  2.6722256652413446E+001  1.7206369749131083E+000
       O  1.8597868540020912E+001  2.7158625736925035E+001  1.4295564280548780E+000
       H  1.5537364974424642E+001  1.3519612262824658E+001  2.0303651928110501E+001
       H  1.5211280603492176E+001  1.3248564206419724E+001  1.8813983799974746E+001
       O  1.5411190151041804E+001  1.2772615269229370E+001  1.9628343513629471E+001
       H  1.0991706525618769E+001 -1.1621284582949908E+001  1.6104424507231503E+001
       H  9.6952699843725512E+000 -1.0910561081616324E+001  1.6111040668678847E+001
       O  1.0587002809107057E+001 -1.0811607347783346E+001  1.5715716824761293E+001
       H  2.5497865470167650E+001  1.4884020781851804E+001  2.3056054688794628E+001
       H  2.4433876122233794E+001  1.5895919184688614E+001  2.2705995926928125E+001
       O  2.5333437600622986E+001  1.5727147981171244E+001  2.2454559248456473E+001
       H -1.7147387944355689E+001  6.3464613719658409E+000  1.4413368858535328E+001
       H -1.5878995361482218E+001  5.8730927867124283E+000  1.5100785706181769E+001
       O -1.6492385187945310E+001  6.6482654640601337E+000  1.5036105667263707E+001
       H -9.9643254688426808E-001  6.0335078062972016E+000  5.3544195417629759E+000
       H -1.3532909078786312E-001  5.7587130941133582E+000  6.5837754644114064E+000
       O -1.2226717968198267E-001  5.8045588185784869E+000  5.6322587825162129E+000
       H -6.8380185517775240E+000 -1.6991189108200615E+001  1.8146921820080742E+001
       H -5.6202143943547238E+000 -1.6714845330268485E+001  1.7245437306926920E+001
       O -6.3575242097720412E+000 -1.6283327541111369E+001  1.7740837901899763E+001
       H  2.7783728954641159E+001  9.9634884027808681E+000  6.3486672955938872E-001
       H  2.8148376307748570E+001  9.3013733580655451E+000  1.8924038628011226E+000
       O  2.8350875956863504E+001  1.0046723610808225E+001  1.3957389497767370E+000
       H  1.2167410421044844E+001 -1.2672321438614806E+000  2.5804429899224647E+001
       H  1.0770054558362970E+001 -1.4988176085931260E+000  2.5337082976955692E+001
       O  1.1363140094338688E+001 -1.5723563332669073E+000  2.6151062846966326E+001
       H -2.7425964600591932E+000  6.2659031550140494E+000 -4.4172971912268251E+000
       H -4.1749526723676622E+000  6.5976047016372679E+000 -4.1584797442441470E+000
       O -3.3409617185075215E+000  7.0472494696334405E+000 -4.1677778288621807E+000
       H  5.1238919729653771E+000  6.2198895061532351E+000  2.7061053796013588E+000
       H  6.2833643033768816E+000  5.1874947743643318E+000  2.9941715375149269E+000
       O  5.7939625983587471E+000  5.7157050764728750E+000  2.3022342407062921E+000
       H -6.4418058410476473E-002 -9.9480268645380454E-001  4.4260947943760121E+000
       H -7.3210304303596252E-001 -1.9731408508067698E+000  3.7962320551325517E+000
       O -5.5941330462817830E-002 -1.3074942623141592E+000  3.5439164784421373E+000
       H -1.1443159887166445E+000  2.3754238254490460E+001 -5.6064227829630724E+000
       H -1.3325000742634452E+000  2.3105697316854791E+001 -4.2366106320393078E+000
       O -1.1515641073594387E+000  2.4025867732490855E+001 -4.6583910390240586E+000
       H  2.3058744370043087E+001  2.2643647709716237E+001  1.2086034607049674E+001
       H  2.4231582732870400E+001  2.2263705979283934E+001  1.3063189896074800E+001
       O  2.3170885328363521E+001  2.2256189692264101E+001  1.2976708294695202E+001
       H  2.3106711600208629E+000 -2.2407382293076544E+001 -8.0245901176202192E+000
       H  2.4245711770119880E+000 -2.0926544563685802E+001 -7.4949828612524119E+000
       O  3.0009486723138190E+000 -2.1721779196390678E+001 -7.8232726369799419E+000
       H  7.1663199577189545E+000  2.7596957766480466E+000  1.4545533852414462E+001
       H  6.3045248887237637E+000  1.6543386712080030E+000  1.4063217868940541E+001
       O  6.9842018647495436E+000  2.2213448125660631E+000  1.3751125364882768E+001
       H  1.5033397687220154E+001  2.0132564893982792E+001 -1.7652896111231637E+001
       H  1.5831154628780707E+001  2.0006846725982196E+001 -1.6441617911550583E+001
       O  1.4893783060318080E+001  1.9944440647774588E+001 -1.6697357008717098E+001
       H  1.5204364372777814E+001 -1.0309403836651059E+001 -2.1101126427393872E+001
       H  1.3725724941016518E+001 -9.6999403717449990E+000 -2.1309097803763898E+001
       O  1.4306064971415291E+001 -1.0273877287831466E+001 -2.0785647973093614E+001
       H  1.4519478895615372E+001 -1.3175985460286785E+000  2.7329665398230869E+001
       H  1.4295717797174188E+001 -1.4212692753700937E+000  2.8880267913469368E+001
       O  1.3824560197788287E+001 -1.2995113271724714E+000  2.8073205005184846E+001
       H  2.1875228773890704E+001  6.7521596035862350E+000  1.9587122655164912E+001
       H  2.1385998020195419E+001  5.3707770916436033E+000  1.9858501419564064E+001
       O  2.1630536885225268E+001  6.2389373642081329E+000  2.0393413728977524E+001
       H  1.7703896047934851E+001  2.0148351779179784E+001  1.1118606905694058E+001
       H  1.7299390971472970E+001  1.9106131405145010E+001  1.0122912472932239E+001
       O  1.7066401613149534E+001  1.9414076287392227E+001  1.1002753640109377E+001
       H  3.3055726898157807E+000  1.6790958628484458E+000  3.2632651273123883E+000
       H  2.4794250963656141E+000  4.4251291458768388E-001  2.9439526162540983E+000
       O  3.2423109311222977E+000  9.2082481051337883E-001  2.6876697891576540E+000
       H  2.1113160719552880E+001  2.3030423772813791E+001 -5.7175467826807216E+000
       H  1.9607257527934252E+001  2.2807439078164773E+001 -5.6781971285110169E+000
       O  2.0284069723331847E+001  2.3248317141507702E+001 -6.1352300318076001E+000
       H  2.6653352479729917E+000  3.3434487556600956E+001  1.5276388411299306E+001
       H  3.6128126168813752E+000  3.4075045206887623E+001  1.6483357987877650E+001
       O  2.9107989869103417E+000  3.4219195346524579E+001  1.5853839613929223E+001
       H  1.3684672651992177E+001  3.4131725449802102E+000  1.2680199629974146E+001
       H  1.4078430223819037E+001  2.5889402280817904E+000  1.3947224612585776E+001
       O  1.3345804926490439E+001  2.8866473342727366E+000  1.3355066052834035E+001
       H  1.4285588590927604E+001  1.5853933244924642E+001 -1.6402759070773072E+001
       H  1.4092096415236627E+001  1.4903450576544678E+001 -1.7636058380799621E+001
       O  1.4763811426589355E+001  1.5239406769621912E+001 -1.6986746869982809E+001
       H -9.1169857301283628E+000  1.4358659450898365E+001  8.4050619167017633E+000
       H -8.5530896428812895E+000  1.5597432310451012E+001  8.0106581784388755E+000
       O -9.4307368118602302E+000  1.5203527445687271E+001  8.1147948528995162E+000
       H  9.7641251629480958E+000  3.7732461950850336E+001  1.3038267787398723E+001
       H  8.9308072752675063E+000  3.8925638242383563E+001  1.3621708489499508E+001
       O  8.9055303261338672E+000  3.8137659593275082E+001  1.2998822608836090E+001
       H  5.2233070546360212E+000  6.4552244154347385E+000  1.8959852222751024E+001
       H  4.6432388762570360E+000  5.8319983400463444E+000  1.7724889871994076E+001
       O  4.6609241075993184E+000  6.6680323075777572E+000  1.8231846290581199E+001
       H -1.6832909922186090E+000  2.0071808216823783E+001 -6.2331835312910155E-001
       H -3.0208025245924648E+000  1.9349543107979112E+001 -1.1829200293565023E+000
       O -2.4175835900474767E+000  1.9446034162614804E+001 -4.3629553388031928E-001
       H -6.2410988416869451E+000  1.7057191814800664E+001  2.0505296009743063E+001
       H -6.5665363637051861E+000  1.7851469421523138E+001  2.1934158594475228E+001
       O -6.5913856307646927E+000  1.6982552413226514E+001  2.1480706155832454E+001
       H  1.6774824298628662E+001 -1.6215697706247436E+000  5.9256674891640273E+000
       H  1.7931545450859588E+001 -2.0045203026628484E+000  6.8502571833600214E+000
       O  1.7270789098857463E+001 -2.3705484382955508E+000  6.2086163420705667E+000
       H -3.1616419108813609E+001  1.5098710929172976E+000  2.1834500036114587E+001
       H -3.1223629991378740E+001  1.3673355343368367E+000  2.0456827825159966E+001
       O -3.0828979218910721E+001  1.4577570480133835E+000  2.1355989670084107E+001
       H  9.8101504293637234E+000  8.4798324735083828E+000  1.1849914748971601E+001
       H  1.0295195647740760E+001  8.7842639829459053E+000  1.3331605208126899E+001
       O  9.6100728917421989E+000  8.4067165364878811E+000  1.2798933633944305E+001
       H  1.5697945469955297E+001 -1.5646899283265162E+001  2.3502915544219633E+001
       H  1.5382316628162055E+001 -1.5426370547709777E+001  2.2040191791114150E+001
       O  1.6189785296266958E+001 -1.5402655561382083E+001  2.2697353656960896E+001
       H  1.0201874773396573E+000  1.4596209328579636E+001 -5.8521011118201933E+000
       H  4.2948035306861521E-001  1.5770803392640349E+001 -6.7309556939922404E+000
       O  6.8706541224994333E-001  1.4825402544354342E+001 -6.7311646382331229E+000
       H  2.0106878495492573E+001  8.3322568856205219E+000  1.7229895100186148E+001
       H  1.9836990150618885E+001  6.8655469495909065E+000  1.6518276295374104E+001
       O  1.9540330356561721E+001  7.5038157908340404E+000  1.7215181154468915E+001
       H  3.1616305040006472E+000  1.0396740648946048E+001  2.6962103890315404E+001
       H  3.4395139119596920E+000  9.8585505432185681E+000  2.5569862969575670E+001
       O  2.6210102990937441E+000  1.0056790655454094E+001  2.6102952384836001E+001
       H  3.1648573601294281E+000 -8.3631470594299433E+000 -1.8953258023676969E+000
       H  2.6948316233035867E+000 -7.8814513091948690E+000 -5.2939058051903742E-001
       O  2.9838560172423843E+000 -7.5292333011384205E+000 -1.4120338760697946E+000
       H  4.6547828713742820E+000  8.5394751002235800E+000  1.6478006735747382E+001
       H  4.0294297188339723E+000  9.3416571948205274E+000  1.5134413134654425E+001
       O  4.7412581106961227E+000  9.3004670110244003E+000  1.5872523496501440E+001
       H  6.2796576607518020E+000  2.5302820114194759E+001  3.3491645493178218E+001
       H  5.7727669005567481E+000  2.4199376515506966E+001  3.2661744377886478E+001
       O  5.9572805850369246E+000  2.4407835885026490E+001  3.3578186534786703E+001
       H  8.0556559240613659E+000  3.4904267700311941E+001 -3.7002561909893217E-001
       H  8.9581827479187393E+000  3.3754509773944363E+001 -8.3579269608343043E-001
       O  8.9888868056003695E+000  3.4655295727780690E+001 -5.5299370927351199E-001
       H  4.1718026957222432E-001  1.0496719648033734E+001  1.1873977788041440E+001
       H  1.0467731666297584E+000  1.1150591297421769E+001  1.0628114846352821E+001
       O  2.0705674926647502E-001  1.0787973704827730E+001  1.0904072402752638E+001
       H  1.4561556493545240E+001  1.4373309997709338E+001 -2.1387784653356405E+001
       H  1.5857181659731843E+001  1.4756516338249313E+001 -2.0895824651383794E+001
       O  1.4978869910932476E+001  1.4666966429367681E+001 -2.0608844138728752E+001
       H  1.3050728980044065E+001 -2.4904884568419035E+000  1.5886711077902634E+001
       H  1.4148400177141745E+001 -2.5013389475707992E+000  1.6850561470811215E+001
       O  1.3376038910213433E+001 -1.9511986223619968E+000  1.6585980364781751E+001
       H  1.5840101491916800E+001  1.0053358001237356E+001  1.9656704578961570E+001
       H  1.7121064314045888E+001  9.5083304149112671E+000  1.9997133368153335E+001
       O  1.6418368336926733E+001  9.9445288198271200E+000  2.0347994037725549E+001
       H  2.7803628405615353E+001 -1.7149339270849038E+000  2.0891604659142253E+001
       H  2.8240386914031010E+001 -4.2763110461574172E-001  2.1448268033857026E+001
       O  2.8236589404642402E+001 -9.0553432530565214E-001  2.0549758184549400E+001
       H  2.0869155899556915E+001  1.5200918493625787E+001  2.1921784720251537E+001
       H  2.0097911432458869E+001  1.5981494609535490E+001  2.0964166568644735E+001
       O  2.0498147083834596E+001  1.5109123721152169E+001  2.1022363712273215E+001
       H  1.1826271009335178E+001  5.8428930413898295E+000 -4.7345569744591467E+000
       H  1.2061566697524148E+001  4.4803388579587864E+000 -5.5343045194571481E+000
       O  1.2114960250185286E+001  5.4412142718441654E+000 -5.6064421303745879E+000
       H -3.3610561708839555E+000  1.3259540010901725E+001 -3.9188478020530471E+000
       H -3.6634099878229085E+000  1.4531321066939048E+001 -4.7604364887289421E+000
       O -3.4579684867984617E+000  1.3594042552024115E+001 -4.8630223954658796E+000
       H  8.0472456098031095E+000  8.7799017157173846E+000  1.3402189486553956E+001
       H  6.6475394569686168E+000  9.4976769216343477E+000  1.3697155702248139E+001
       O  7.3313477880331028E+000  8.9005052531786628E+000  1.4106072019377843E+001
       H -1.7032323105252921E+001 -5.0980671970031164E+000  5.0079613933560090E+000
       H -1.8095667467960517E+001 -3.9148734606218563E+000  5.5393861660991046E+000
       O -1.7195665743834450E+001 -4.1236376680733517E+000  5.0813102416048972E+000
       H -8.3034537350878668E-001  8.8045257349401691E+000 -4.3485421633622039E+000
       H -1.3249782078244066E+000  8.9655797110569750E+000 -5.6269143184047135E+000
       O -4.7218023568092982E-001  9.0096465114507627E+000 -5.1854387837145612E+000
       H  1.3392034799831187E+001  7.6853859083063467E+000  7.6672492295386903E+000
       H  1.2256892081179160E+001  8.8273269202178462E+000  7.9300476806966751E+000
       O  1.3213904551154901E+001  8.6421107252405935E+000  7.8938011152063403E+000
       H  1.7196737371103972E+000  1.1391242086071403E+001  3.4210579292013605E+000
       H  2.4683309100397941E+000  1.0872382441212281E+001  4.7188751276536101E+000
       O  2.4533954239531592E+000  1.1535077850276046E+001  3.9996153107094576E+000
       H  1.1345452153692220E+001  1.7598737478757489E+001 -7.8972778551933640E+000
       H  1.1489421524875134E+001  1.6074458818749868E+001 -8.1244908344637636E+000
       O  1.1001246666329376E+001  1.6727276969405654E+001 -7.7009215920915590E+000
       H  1.6653939489208117E+001  1.7356797891103309E+001  1.5270487826902785E+001
       H  1.7160140816059744E+001  1.6894831535127018E+001  1.6648956943576948E+001
       O  1.6449271728284049E+001  1.6616573131513722E+001  1.5999476912316606E+001
       H  5.0134180693766668E+000 -5.9496987589132138E+000 -1.2674759442323293E+001
       H  4.8020145567418986E+000 -5.9857094839066303E+000 -1.1135254652713192E+001
       O  5.2000152438833052E+000 -5.4263459818978168E+000 -1.1847708475691688E+001
       H  4.4846796896163212E+000  1.3009770546923678E+001  3.4184730439337030E+000
       H  5.5151651640777875E+000  1.1882193941250486E+001  3.6559504305168113E+000
       O  5.1792979324036432E+000  1.2746720480890326E+001  4.0412058009365870E+000
       H  1.1544248978273437E+001  7.5583077769644129E+000  1.0689798592457453E+001
       H  1.1960930210950119E+001  6.4382965734714386E+000  1.1903669215898395E+001
       O  1.2235543082322918E+001  7.2552720903630856E+000  1.1380913072706139E+001
       H  2.6571052973408058E+000  1.9471154915760900E+000 -7.2498188581658489E+000
       H  1.6529982179182148E+000  7.6192252103826452E-001 -7.5739351277029154E+000
       O  2.5542054354005388E+000  9.9529571933526229E-001 -7.1174711649585376E+000
       H  2.5212988816805058E+000  1.4594921448519630E+001  7.4180137978777685E+000
       H  3.4168767232739516E+000  1.4110382221514902E+001  8.5286835732780357E+000
       O  2.6530881171375236E+000  1.4650352680676949E+001  8.4043511164824523E+000
       H -7.1454956342816240E+000 -4.9690892294600069E+000  1.6905323001750403E+001
       H -7.3575182647931348E+000 -3.7349912401785872E+000  1.7694882617503378E+001
       O -7.2190142352957878E+000 -4.6723583168856546E+000  1.7826298810713247E+001
       H  1.7668610226100117E+001  1.4308076272735646E+000  1.4811661393876081E+001
       H  1.6560107428048052E+001  2.0989504903757963E+000  1.5814574974816129E+001
       O  1.7344955623643362E+001  2.2890297114703162E+000  1.5213252797577562E+001
       H  1.5346790941546894E+001 -3.8710917456228024E+000  2.8752408805396666E+001
       H  1.4819958359281932E+001 -5.1770038616920475E+000  2.8915391305437062E+001
       O  1.5207994391508056E+001 -4.4603824322316372E+000  2.9490940660424204E+001
       H  1.7719821404067645E+001  2.9354128789071227E-001  2.0469543593262824E+001
       H  1.8029647706532273E+001  1.7602818992428944E+000  2.0409906231124836E+001
       O  1.7921760783939945E+001  1.0409997966065110E+000  2.1092692973790921E+001
       H  1.1567986902989107E+001  2.8100551122280555E+000 -2.9235088854541860E+000
       H  1.1764104891950334E+001  2.7247614171310950E+000 -4.4795074331708147E+000
       O  1.1420539852925275E+001  2.2255422754940146E+000 -3.6698569599056410E+000
       H  9.8675798746506587E+000 -5.9365324757974562E+000 -4.0935359901172790E+000
       H  1.1379687141288295E+001 -5.7255413868489411E+000 -4.3932987375755923E+000
       O  1.0674528677574180E+001 -5.7524400862672005E+000 -3.5658081323920938E+000
       H  3.1810707864013256E+001  1.6013029049260016E+001  1.3339387850419111E+001
       H  3.2971379373138483E+001  1.5489695195889929E+001  1.2520355732583127E+001
       O  3.2719984713072101E+001  1.6211939215436416E+001  1.3129674516585460E+001
       H  2.0122747988524836E+001  8.1751095495385275E+000  9.5181671591524424E+000
       H  2.0855777877808912E+001  8.0650515888696201E+000  8.1621933099004611E+000
       O  2.0144527718851389E+001  7.6063790083555105E+000  8.6917756957681362E+000
       H  8.1894725778976447E+000 -6.2110202510634887E+000  7.5716984766884003E+000
       H  7.6848254801748528E+000 -7.4015182293640933E+000  8.4804855664092376E+000
       O  8.4653422719630900E+000 -7.0407591422694109E+000  8.0557880770704369E+000
       H -4.9300801900424798E+000  8.6058764047273186E+000  4.4001897646941766E+000
       H -5.0791504288826719E+000  8.3568862783912206E+000  2.8832639986214170E+000
       O -5.5742209192202434E+000  8.3068696148468817E+000  3.7298945913288191E+000
       H  1.6556316666010954E+001 -1.2432932346326389E+001 -1.5350737557596545E+000
       H  1.5359880721166142E+001 -1.2458143882997707E+001 -3.6824907579105687E-001