 # Version information for this restart file 
 # current date 2025-03-31 16:00:29.512
 # current working dir /ccc/scratch/cont003/gen2309/sicilana/NPT/128_H2O_4_NaCl_10_wt_673K_1000bar/BATCH_11_MD_T_673_P_1000_steps_1000_dt_0.5_NH2O_128_NaCl_4_abc_17.19_17.19_17.19_wt_9.20
 # Program compiled at                                       2024-10-31 15:04:21
 # Program compiled on                                                 topaze131
 # Program compiled for                                                   x86_64
 # Source code revision number                                                  
 &GLOBAL
   PRINT_LEVEL LOW
   PROJECT_NAME "brines"
   RUN_TYPE MD
   FLUSH_SHOULD_FLUSH T
 &END GLOBAL
 &MOTION
   &MD
     ENSEMBLE NPT_I
     STEPS 1000
     TIMESTEP  4.9999999999999994E-001
     STEP_START_VAL 26100
     TIME_START_VAL  1.3050000000006805E+004
     ECONS_START_VAL -2.4590398713531335E+003
     TEMPERATURE  6.7300000000000011E+002
     &BAROSTAT
       PRESSURE  1.0000000000000000E+003
       TIMECON  9.9999999999999989E+002
       &VELOCITY
          -1.3302389432050942E-005
       &END VELOCITY
       &MASS
           4.2836593343398705E+007
       &END MASS
       &THERMOSTAT
         TYPE CSVR
         &CSVR
           TIMECON  9.6755373060191388E+001
           &THERMOSTAT_ENERGY
               7.6798188779241580E-005
           &END THERMOSTAT_ENERGY
           &RNG_INIT
 Wiener process for Thermostat # 1        1 F T F  -1.2121847171498019E+00        4261053722.0        2507660376.0        4228923054.0         389432957.0        1842112619.0        1229813857.0             12345.0             12345.0             12345.0             12345.0             12345.0             12345.0             12345.0             12345.0             12345.0             12345.0             12345.0             12345.0
           &END RNG_INIT
         &END CSVR
       &END THERMOSTAT
     &END BAROSTAT
     &THERMOSTAT
       TYPE CSVR
       &CSVR
         TIMECON  9.9999999999999989E+002
         &THERMOSTAT_ENERGY
            -7.8763296419744844E-001
         &END THERMOSTAT_ENERGY
         &RNG_INIT
 Wiener process for Thermostat # 1        1 F T F  -8.8327591740196798E-01        3341308776.0         528023552.0        1816738751.0        3907043415.0        3569902442.0        2719099076.0             12345.0             12345.0             12345.0             12345.0             12345.0             12345.0             12345.0             12345.0             12345.0             12345.0             12345.0             12345.0
         &END RNG_INIT
       &END CSVR
     &END THERMOSTAT
     &AVERAGES T
       &RESTART_AVERAGES
         ITIMES_START 1
         AVECPU  2.2989542804678841E+001
         AVEHUGONIOT  0.0000000000000000E+000
         AVETEMP_BARO  3.0535802966877952E+002
         AVEPOT -2.4597152012586284E+003
         AVEKIN  1.2228663313304486E+000
         AVETEMP  6.5839758773782773E+002
         AVEKIN_QM  0.0000000000000000E+000
         AVETEMP_QM  0.0000000000000000E+000
         AVEVOL  3.8546385980008912E+004
         AVECELL_A  3.3704228535218888E+001
         AVECELL_B  3.3704228535218888E+001
         AVECELL_C  3.3704228535218888E+001
         AVEALPHA  9.0000000000000000E+001
         AVEBETA  9.0000000000000000E+001
         AVEGAMMA  9.0000000000000000E+001
         AVE_ECONS -1.2912685240506130E+002
         AVE_PRESS  3.8366004843515691E+002
         AVE_PXX  3.5755871540549327E+002
       &END RESTART_AVERAGES
     &END AVERAGES
   &END MD
   &PRINT
     &TRAJECTORY SILENT
       FILENAME =brines-1.xyz
       &EACH
         MD 1
       &END EACH
     &END TRAJECTORY
     &CELL SILENT
       FILENAME =brines-1.cell_xyz
       &EACH
         MD 1
       &END EACH
     &END CELL
     &VELOCITIES SILENT
       FILENAME =brines-1.vel
       &EACH
         MD 1
       &END EACH
     &END VELOCITIES
     &FORCES SILENT
       FILENAME =brines-1.force
       &EACH
         MD 1
       &END EACH
     &END FORCES
     &STRESS SILENT
       FILENAME =brines-1.stress
       &EACH
         MD 1
       &END EACH
     &END STRESS
     &RESTART SILENT
       FILENAME =brines-1.restart
       &EACH
         MD 1
       &END EACH
     &END RESTART
     &RESTART_HISTORY SILENT
       &EACH
         MD 50
       &END EACH
     &END RESTART_HISTORY
   &END PRINT
 &END MOTION
 &FORCE_EVAL
   METHOD QS
   STRESS_TENSOR ANALYTICAL
   &DFT
     BASIS_SET_FILE_NAME /ccc/work/cont003/gen2309/sicilana/DATA_CP2K/GTH_BASIS_SETS
     POTENTIAL_FILE_NAME /ccc/work/cont003/gen2309/sicilana/DATA_CP2K/GTH_POTENTIALS
     &SCF
       MAX_SCF 50
       EPS_SCF  9.9999999999999995E-008
       &OT T
         MINIMIZER DIIS
         PRECONDITIONER FULL_SINGLE_INVERSE
       &END OT
       &OUTER_SCF T
         EPS_SCF  9.9999999999999995E-008
         MAX_SCF 50
       &END OUTER_SCF
     &END SCF
     &QS
       EPS_DEFAULT  1.0000000000000000E-014
       EPSFIT  9.9999999999999995E-007
       EPSISO  9.9999999999999998E-013
       EPSRHO0  1.0000000000000000E-008
       QUADRATURE GC_LOG
       EXTRAPOLATION ASPC
       METHOD GAPW
     &END QS
     &MGRID
       NGRIDS 4
       CUTOFF  6.0000000000000000E+002
       REL_CUTOFF  6.0000000000000000E+001
     &END MGRID
     &XC
       DENSITY_CUTOFF  1.0000000000000000E-010
       GRADIENT_CUTOFF  1.0000000000000000E-010
       TAU_CUTOFF  1.0000000000000000E-010
       &XC_FUNCTIONAL NO_SHORTCUT
         &PBE T
           PARAMETRIZATION REVPBE
         &END PBE
       &END XC_FUNCTIONAL
       &VDW_POTENTIAL
         POTENTIAL_TYPE PAIR_POTENTIAL
         &PAIR_POTENTIAL
           R_CUTOFF  1.2000000000000000E+001
           TYPE DFTD3
           PARAMETER_FILE_NAME /ccc/work/cont003/gen2309/sicilana/DATA_CP2K/dftd3.dat
           REFERENCE_FUNCTIONAL "PBE"
           CALCULATE_C9_TERM T
           REFERENCE_C9_TERM T
           VERBOSE_OUTPUT T
           D3_EXCLUDE_KIND 3
         &END PAIR_POTENTIAL
       &END VDW_POTENTIAL
     &END XC
     &REAL_TIME_PROPAGATION
       INITIAL_WFN RT_RESTART
     &END REAL_TIME_PROPAGATION
     &PRINT
       &MO_CUBES SILENT
         WRITE_CUBE F
         NLUMO 10
         NHOMO 2
         &EACH
           MD 200
         &END EACH
       &END MO_CUBES
       &MOMENTS ON
         ADD_LAST NUMERIC
         COMMON_ITERATION_LEVELS 20000
         FILENAME =brines-1.dipoles
         REFERENCE COM
         &EACH
           MD 1
         &END EACH
       &END MOMENTS
     &END PRINT
   &END DFT
   &SUBSYS
     &CELL
       A  1.9149518671491435E+001  0.0000000000000000E+000  0.0000000000000000E+000
       B  0.0000000000000000E+000  1.9149518671491435E+001  0.0000000000000000E+000
       C  0.0000000000000000E+000  0.0000000000000000E+000  1.9149518671491435E+001
       MULTIPLE_UNIT_CELL 1 1 1
     &END CELL
     &COORD
       H  1.0306265646680833E+001  2.3526090679823284E+001  1.1544145867598594E+000
       H  8.8150332549478332E+000  2.3084550719815244E+001  1.4900770701793835E+000
       O  9.7276410611361523E+000  2.3175972725366965E+001  1.9243964462059788E+000
       H  8.6632156476367950E+000 -8.5099660030064648E+000  2.3475609088434992E+000
       H  7.7845998664500566E+000 -8.8447372754509814E+000  3.4870208063226587E+000
       O  7.9622767912765511E+000 -8.1258553122575670E+000  2.9337258496134293E+000
       H -9.7778537822183189E+000  4.7840097503034464E+001  4.8724047839696922E+001
       H -9.7477472026435539E+000  4.8498822765499519E+001  4.7269717015179573E+001
       O -9.8771369927420327E+000  4.7665808516367427E+001  4.7721739090552433E+001
       H  9.2338622310347258E+000  2.2580541571451572E+001  2.4601137551630014E+001
       H  9.3999654396368921E+000  2.3957360579844394E+001  2.4012181741716962E+001
       O  8.8544975449710144E+000  2.3503388500500883E+001  2.4676496512412808E+001
       H -9.4505344481931068E+000  4.9965691320594647E+000  1.0529519257991712E+001
       H -1.0281211977366359E+001  6.1014771989398788E+000  9.9946050255752805E+000
       O -9.3092733535453345E+000  5.9630052400426221E+000  1.0259302387595572E+001
       H  3.3632903862815922E+001  2.9109708688697772E+001 -5.9320817697502761E+000
       H  3.2849781386277115E+001  2.9200406578780523E+001 -7.3219882874732152E+000
       O  3.3579756312046861E+001  2.9598823821887535E+001 -6.7478881600796194E+000
       H -4.4211139240938957E+000  5.2334552792471971E+000  8.4604701871929642E+000
       H -5.9843830574428427E+000  5.3543057350078946E+000  8.5795603121377937E+000
       O -5.2214206567581325E+000  5.1201052852324462E+000  9.0392089252967036E+000
       H  2.5766369121844956E+001 -3.2279889425626213E-001 -9.3184369113072696E-001
       H  2.5438566112051600E+001  1.1071778395583411E+000 -1.1809635563708221E+000
       O  2.5071306625769903E+001  4.0280128153795997E-001 -6.6858394312488534E-001
       H  2.2292319242979630E+001  1.3320052409175322E+001  1.5075789700914205E+001
       H  2.2321729728677735E+001  1.3832475503228402E+001  1.3637557872434298E+001
       O  2.1977791179496087E+001  1.4033206638203975E+001  1.4473367327174296E+001
       H  2.4212170680661306E+001 -4.0898233157751890E-001  2.1774885616692131E+001
       H  2.3959781128104353E+001 -1.8792972028931181E+000  2.2237221399801559E+001
       O  2.4121578856431771E+001 -9.2879292638564293E-001  2.2545574445939398E+001
       H  6.4421732626679962E+000 -1.8573791189900121E-001 -9.9447118794942764E+000
       H  5.1435303658327092E+000 -1.2861974168859036E-001 -9.1325767641698423E+000
       O  5.5826797659246727E+000  3.7865199978519143E-001 -9.7895286353841549E+000
       H  1.2930622487181493E+001  3.3537142016071022E+000  2.2544947598858094E+001
       H  1.1319632235648212E+001  3.3645403849813302E+000  2.2416745401310813E+001
       O  1.2058878417352002E+001  3.7270529658348992E+000  2.2917307947226867E+001
       H  1.7461392041665125E+001  1.3809900458491205E+001  4.8616870128116121E+000
       H  1.7113215308664731E+001  1.5262631995512574E+001  4.9220296584415957E+000
       O  1.7051097492482334E+001  1.4463414516739196E+001  4.3094707413146498E+000
       H  5.9432474546974543E+000 -1.0155060668945698E+001 -9.3851665732505085E-001
       H  6.2338176856862804E+000 -1.0769585985397136E+001 -2.3626361503953306E+000
       O  6.6172610883405030E+000 -1.0301660632146431E+001 -1.5631914708267645E+000
       H  3.0752674997004942E+001  3.6172363867276154E+001  3.7522000839839137E-001
       H  3.0629851759199944E+001  3.6032956435049961E+001 -1.1118973647958108E+000
       O  3.0343239840378732E+001  3.5650184857313612E+001 -3.0528966038634564E-001
       H  1.4283997583613676E+001  1.6659022920600097E+000 -1.0439239245085178E+001
       H  1.3698660335880687E+001  3.1235676020916796E+000 -1.0165457424876037E+001
       O  1.3438394240788737E+001  2.1666119000049169E+000 -1.0254251763980051E+001
       H  1.9707043120863897E+001  9.7088605317706578E-001  6.3179561256736489E+000
       H  2.0841886787855177E+001  4.6956405109100119E-001  7.1907293541036807E+000
       O  2.0629155196294043E+001  1.1031614746162746E+000  6.4671685069985010E+000
       H  9.5910602056814884E+000 -2.0581272349093376E+000  1.8054655322152168E+001
       H  9.2539001333460664E+000 -1.0885987654290112E+000  1.6927083684867210E+001
       O  8.8360038132288832E+000 -1.8279798796989397E+000  1.7380977353946637E+001
       H  4.4734983668412287E+000  1.8274274983073063E+001  7.2092912708095609E+000
       H  4.9157685402059466E+000  1.6651202702582971E+001  7.2350632926572960E+000
       O  4.2022473571611565E+000  1.7305248567765236E+001  7.2458182727699674E+000
       H  2.1196826110217806E+001  2.5665194468409531E+001  3.5446057041680903E+000
       H  1.9904336107194485E+001  2.6312612699195629E+001  3.2396907875719352E+000
       O  2.0604916301109757E+001  2.5713620990979059E+001  2.7817516839974590E+000
       H  1.7904840298018236E+001  1.1159989649808564E+001  2.0364990454291220E+001
       H  1.6667415906898281E+001  1.2057561983822499E+001  2.0293512990559577E+001
       O  1.7123069070504322E+001  1.1460579554347047E+001  2.0873398831001403E+001
       H  1.0494038641769492E+001 -1.1253719928289250E+001  1.7932500115824588E+001
       H  1.0357485376276102E+001 -1.2683462868819660E+001  1.8068606991164824E+001
       O  1.0040065591041749E+001 -1.2015864079994889E+001  1.7412157116220861E+001
       H  2.7797298684393649E+001  1.3931307478041136E+001  2.3510403597397932E+001
       H  2.9259648830220122E+001  1.4268698145723807E+001  2.2983351269018339E+001
       O  2.8635750491121492E+001  1.4532672853639362E+001  2.3660673563569585E+001
       H -1.7374688201544618E+001  9.0191536029334873E+000  1.4537359864175279E+001
       H -1.7786279475581601E+001  7.4979101494543290E+000  1.4679283044226548E+001
       O -1.7156319841335378E+001  8.1829087651844308E+000  1.5003239077766404E+001
       H  1.5134406271663050E+000  6.6058782802882972E+000  5.9072317440910140E+000
       H  1.7032168451546026E+000  5.1816754909397877E+000  6.6263920089351007E+000
       O  1.1724189543192860E+000  5.9901095753042588E+000  6.5820532986898677E+000
       H -8.5005061989757671E+000 -1.4933263268202204E+001  1.7591221438599238E+001
       H -7.3164252646117340E+000 -1.5913166345126671E+001  1.7623261514346211E+001
       O -8.1822935528973897E+000 -1.5769555261944221E+001  1.7989099071559764E+001
       H  2.7879161953202491E+001  9.4249214664146272E+000 -3.6580417087427120E-001
       H  2.7541896160310742E+001  1.0709447542083176E+001 -9.4604577750966845E-001
       O  2.8119888886626011E+001  1.0313908863167557E+001 -3.2757478548897828E-001
       H  1.2995736764123174E+001 -2.5902692508811715E+000  2.5501551836690393E+001
       H  1.2880870488766448E+001 -3.9404686277748744E+000  2.6401058812412550E+001
       O  1.2394412344420511E+001 -3.1002988977339037E+000  2.6060449705058989E+001
       H -6.3650212456172834E+000  9.2457933755290700E+000 -2.0556041675045771E+000
       H -5.3601693088108391E+000  8.0511410010600652E+000 -1.8989863227920005E+000
       O -6.1101386061420548E+000  8.3433121945041897E+000 -2.4082000571206863E+000
       H  6.2636916474751470E+000  4.9580869335227016E+000  7.9117331586512873E-001
       H  7.3691806776664146E+000  6.0416554825334039E+000  4.8738609041590064E-001
       O  7.0327901679060130E+000  5.1120876407995297E+000  2.7195549012788001E-001
       H  5.2266745069426634E-001 -1.7646624565539766E+000  2.0545799826999249E+000
       H  1.1541788802385262E+000 -4.7467492585629123E-001  2.0230078413759229E+000
       O  1.1179882474704483E+000 -1.2426087579731580E+000  2.7249864509487312E+000
       H -4.0154959092956712E+000  2.1998857651113980E+001 -4.9563348394016389E+000
       H -2.4497228519342018E+000  2.1687332952514247E+001 -4.8329092928821851E+000
       O -3.1990428674880702E+000  2.2387622102186850E+001 -4.6263006021430346E+000
       H  2.3711632951271664E+001  2.5050721912729401E+001  1.2082244258833322E+001
       H  2.2280949789327845E+001  2.5814743699853341E+001  1.2118179519128484E+001
       O  2.3110718500868416E+001  2.5784364674111252E+001  1.1606512489100451E+001
       H  1.8183956127360366E+000 -2.0711341471287597E+001 -6.8068555093717249E+000
       H  2.3519890217934716E+000 -1.9329101761985257E+001 -6.8152930923611317E+000
       O  2.5373282565597552E+000 -2.0236814332264167E+001 -6.5111984978440960E+000
       H  8.1851929216334085E+000  2.5837435533275577E+000  1.0967386355789539E+001
       H  8.4153039580738440E+000  3.4688606088227236E+000  1.2155415922107139E+001
       O  8.5356153388610281E+000  3.4420320521113945E+000  1.1230143696101395E+001
       H  1.2881635407840745E+001  1.9673436678867748E+001 -1.8285910388121721E+001
       H  1.1817005471498119E+001  2.0943073469459655E+001 -1.8440286645359294E+001
       O  1.2674489840102533E+001  2.0590725808631674E+001 -1.8625726592466140E+001
       H  1.3970866353931379E+001 -9.0997796434371185E+000 -1.7514350711727694E+001
       H  1.4431913233089563E+001 -7.7002194612918000E+000 -1.6895899541110730E+001
       O  1.3957536031269182E+001 -8.0922916140149415E+000 -1.7588508055903272E+001
       H  1.3700490578753390E+001 -2.9458358115978913E+000  2.9502574432052857E+001
       H  1.3508031977704185E+001 -2.6695242981498590E+000  2.7936408890058754E+001
       O  1.4139275258499341E+001 -3.0392859259261895E+000  2.8584947201623827E+001
       H  2.2413435279323750E+001  5.4166538926721657E+000  1.6494092905975496E+001
       H  2.2167792463025059E+001  5.3849138353962047E+000  1.7940092904382062E+001
       O  2.1741334419784639E+001  5.7676505941793152E+000  1.7123056960489219E+001
       H  1.5857112299956881E+001  2.2253157078150569E+001  1.1900059143255719E+001
       H  1.4949311835435216E+001  2.1558989497545358E+001  1.0937657209100918E+001
       O  1.5825327519407333E+001  2.1445498312000783E+001  1.1337148170598612E+001
       H  3.5483384684168962E+000  1.8395920837450919E+000  3.2347176867662464E+000
       H  3.0343797620901536E+000  2.4815578918746488E+000  4.4998350699619811E+000
       O  3.2525930808793486E+000  2.6942063682002844E+000  3.5430064310294318E+000
       H  1.8106134857422013E+001  2.3141107216063762E+001 -7.5425067334223401E+000
       H  1.8437074988392524E+001  2.2417897346778194E+001 -6.2082438130666473E+000
       O  1.8803842004386208E+001  2.2932441893813344E+001 -6.8992991208196592E+000
       H  2.3907745781090908E+000  3.6056952473481147E+001  1.6415944806733052E+001
       H  3.1473290202506390E+000  3.5139727959246059E+001  1.5397874001830671E+001
       O  3.3068197165366322E+000  3.5598194893385944E+001  1.6183799840673519E+001
       H  1.2677335226839954E+001  9.4482514886223823E-001  1.2603491311198201E+001
       H  1.2672044130671646E+001  1.2857420725304045E+000  1.1053231121437078E+001
       O  1.2317635659406999E+001  1.6076491506780246E+000  1.1925696523066396E+001
       H  1.4006206339127667E+001  1.6726067249712401E+001 -1.7689965083534421E+001
       H  1.3310006203718782E+001  1.6094637805394335E+001 -1.6490912763820248E+001
       O  1.3127511658866558E+001  1.6585762427411037E+001 -1.7363409076357410E+001
       H -9.8535136343205032E+000  1.4840934873053358E+001  6.7721882636211301E+000
       H -8.7405753303683582E+000  1.5115884721728515E+001  7.7591555667455090E+000
       O -9.6078160221502031E+000  1.4689012739513743E+001  7.8117214265812613E+000
       H  9.9058289038165022E+000  3.6859211877012555E+001  1.4741912324530253E+001
       H  9.4648990207685291E+000  3.5856393387792728E+001  1.5767952021794565E+001
       O  1.0060859732909478E+001  3.5911247479653269E+001  1.4941636933540901E+001
       H  6.5511942609995808E+000  5.3503864220042772E+000  1.7243194245488311E+001
       H  5.6434127834009065E+000  5.3583503978023481E+000  1.5902015661437201E+001
       O  5.6830170635208903E+000  5.6205555079313543E+000  1.6885494616759718E+001
       H -2.1030892705853645E+000  2.0177937436464280E+001 -7.7117800416246529E-001
       H -7.0557876798365460E-001  1.9440771748375617E+001 -1.4078517794153635E+000
       O -1.1591504734857547E+000  1.9967850303611229E+001 -7.3254977195652182E-001
       H -6.3988677989508949E+000  1.7930918563030090E+001  2.2619477142695690E+001
       H -6.4892349880904865E+000  1.8652423131056128E+001  2.4028405790413281E+001
       O -5.9377924134667923E+000  1.8589733254059833E+001  2.3290476303598354E+001
       H  1.8498104354396030E+001 -3.7608275899802699E+000  7.0256733699424547E+000
       H  1.8969713915743569E+001 -2.3832183623803940E+000  6.9081960483914635E+000
       O  1.9076560446038688E+001 -3.2502825303048368E+000  6.4673262385365851E+000
       H -3.2381815448209579E+001  4.5346378311506612E+000  2.2779943965585293E+001
       H -3.3670644009535870E+001  4.1281531861923551E+000  2.2092238999559655E+001
       O -3.2900336592307887E+001  4.7472291421827038E+000  2.1959618975507517E+001
       H  1.0525771672331835E+001  9.5593311196404454E+000  1.2569002926709494E+001
       H  9.6483188201216574E+000  1.0801842865824550E+001  1.2499425093265323E+001
       O  9.9957535242565321E+000  1.0099844947782747E+001  1.1963359462853678E+001
       H  1.7678934386352353E+001 -1.6984206164409649E+001  2.2749803602910973E+001
       H  1.7636155546463705E+001 -1.5644953953918606E+001  2.3577332898893310E+001
       O  1.8027516343626690E+001 -1.6591816328496801E+001  2.3599729403525970E+001
       H  2.3154878481060176E-001  1.6017306619851055E+001 -5.7261692609577048E+000
       H -3.7641873291353101E-001  1.7030927707627598E+001 -4.7708094252976903E+000
       O -6.3742115505492680E-001  1.6459606006788647E+001 -5.5328599576382862E+000
       H  1.8200684922343836E+001  9.8975197654862122E+000  1.6447464797759853E+001
       H  1.9850919919444078E+001  9.7348056457142977E+000  1.6303109188402743E+001
       O  1.9045626140031302E+001  1.0114269109329413E+001  1.5860800979084527E+001
       H  2.3343791931464075E+000  9.1969024055832858E+000  2.5227623141850277E+001
       H  3.0220299352336668E+000  9.5059031451503948E+000  2.6529134540437930E+001
       O  2.6840954552791798E+000  8.7601032662585308E+000  2.6087600857387649E+001
       H  2.4410698746476807E+000 -7.5147874993295680E+000 -1.2932623962830618E+000
       H  2.9993099742107527E+000 -6.1332057935046640E+000 -1.4653423797661596E+000
       O  3.1181161530035215E+000 -7.0622219852520445E+000 -1.8362726607636981E+000
       H  3.5903793939830511E+000  9.6989951469816731E+000  1.6896022192176311E+001
       H  2.7690201312687224E+000  8.3811511204267344E+000  1.7646582386324987E+001
       O  2.9500377652305296E+000  9.2928028330374737E+000  1.7654086566536808E+001
       H  7.1865084483619217E+000  2.4667100364180246E+001  3.2915872555768743E+001
       H  6.6060942047525657E+000  2.3276196021719684E+001  3.3328424595400271E+001
       O  6.8984915144340073E+000  2.4072214856535687E+001  3.3679936870962869E+001
       H  8.3138204841751620E+000  3.3131371855843064E+001 -2.5603073376828767E+000
       H  9.2178001410161503E+000  3.3067383071826889E+001 -1.3276396031016153E+000
       O  9.1143870887123182E+000  3.2718899012173019E+001 -2.2131953465065313E+000
       H  3.8732155765854354E-001  1.0664770772163774E+001  1.1772294330929631E+001
       H -6.9418375121162190E-001  1.1688059855929268E+001  1.2080692135883062E+001
       O -1.2170388540844428E-001  1.1396137136564503E+001  1.1379571466726112E+001
       H  1.5268273533751989E+001  1.2312091676743659E+001 -1.9773136535169453E+001
       H  1.6558718281678708E+001  1.2963241033424239E+001 -1.9930217967340276E+001
       O  1.5850004627106511E+001  1.2985320943181209E+001 -1.9338676163929318E+001
       H  1.3374879385330287E+001 -5.8279694359536993E-001  1.6369145165084991E+001
       H  1.2645777066881518E+001 -1.7100011976334264E+000  1.5599151553753451E+001
       O  1.3163609044428664E+001 -1.5842457943507116E+000  1.6408062464725685E+001
       H  1.6140214758569311E+001  8.0235405105659847E+000  2.1065479290591011E+001
       H  1.5023620065213885E+001  7.2020506992963149E+000  2.1874786194151522E+001
       O  1.5326620018936117E+001  7.5028767146308395E+000  2.0890756333136231E+001
       H  2.9331738453336982E+001 -6.9532275533647603E-001  2.2724478581455863E+001
       H  2.8791726394934681E+001 -2.0840872413625782E+000  2.2208823555735378E+001
       O  2.9345930856744893E+001 -1.3506640592242460E+000  2.2026277124468983E+001
       H  2.1924989929620953E+001  1.5233748056638316E+001  1.8371057280963534E+001
       H  2.0723587753609998E+001  1.4559509665760626E+001  1.7578089966337021E+001
       O  2.1197598491311947E+001  1.4565635214499149E+001  1.8436311083861984E+001
       H  1.1067459272353245E+001  4.6592591156076280E+000 -5.2961877228134533E+000
       H  1.0597987639750636E+001  6.0112013875316128E+000 -5.0767902982629396E+000
       O  1.0295347579627693E+001  5.2049429621113612E+000 -5.4389891855485333E+000
       H -2.5016881122672423E+000  1.1688642939040097E+001 -5.7701828597845575E+000
       H -2.5081798801885031E+000  1.3225228231975432E+001 -5.5114381000554076E+000
       O -1.8921262883346615E+000  1.2375970958708736E+001 -5.4296359453895597E+000
       H  7.4881481534971064E+000  7.4532660138489364E+000  1.3082454540433481E+001
       H  8.8709362144853490E+000  6.8305964637478729E+000  1.2583891902624130E+001
       O  7.9080199969166891E+000  6.6297272453020497E+000  1.2743295190873967E+001
       H -1.5349182816388344E+001 -3.6674593190455020E+000  4.7707717143822279E+000
       H -1.6887913392550175E+001 -3.1240854134386109E+000  4.4323255373680013E+000
       O -1.6281266603100729E+001 -3.9610714934673830E+000  4.5003591907951757E+000
       H -7.7131009781655946E-001  7.1740476940585056E+000 -8.1182952597514930E+000
       H  2.1211721370444900E-001  8.0020861154292628E+000 -8.9411497022130444E+000
       O -3.0488388817285544E-001  8.0447633140455235E+000 -8.0923554738839734E+000
       H  1.3765672538585664E+001  8.7182384158700756E+000  7.4621680277225995E+000
       H  1.3370051377739308E+001  1.0138461216728441E+001  8.0693699629536333E+000
       O  1.4024467558493594E+001  9.6388720270348607E+000  7.5029964590223504E+000
       H  2.7098228445220465E+000  1.0432501942954239E+001  3.0333628298209696E+000
       H  1.8310710410627236E+000  1.1362134838244808E+001  2.5321405290723860E+000
       O  2.7069066818657603E+000  1.1006871643171170E+001  2.2931142475722881E+000
       H  1.2170015840978740E+001  1.5759743192447505E+001 -6.7040240899528829E+000
       H  1.3283435445501368E+001  1.4773257675034875E+001 -6.0866015325246758E+000
       O  1.3059764260579279E+001  1.5421447596779302E+001 -6.7941682165205526E+000
       H  1.5574466850251747E+001  1.9568983253690309E+001  1.2861266092012452E+001
       H  1.5329828846297227E+001  1.8790411056275481E+001  1.4055634292590458E+001
       O  1.4997127475347202E+001  1.9548016579120851E+001  1.3678803915175370E+001
       H  5.7128759298663718E+000 -5.1901684096319620E+000 -1.3086191303255001E+001
       H  5.5580888650203599E+000 -5.1200082331532606E+000 -1.1624880249285287E+001
       O  6.0241002180354455E+000 -4.6059038128634020E+000 -1.2333198795670635E+001
       H  5.8714122458418840E+000  1.1265515170523686E+001  5.7846206178378452E+000
       H  5.3802568533361192E+000  1.2323792284173205E+001  4.8161186999953367E+000
       O  5.9255448126285799E+000  1.2189783729792865E+001  5.6237416738753909E+000
       H  1.1250000742009306E+001  7.6947951867183990E+000  1.0225692338162574E+001
       H  1.1063032519537879E+001  9.0017337113185434E+000  9.4870103646825363E+000
       O  1.1747749120669235E+001  8.4765081094841559E+000  9.8786530345374732E+000
       H  1.1629339984969440E+000  9.3543181576449586E-001 -8.4191224224306556E+000
       H  6.4632097482353357E-001  2.3826676696462390E+000 -7.6695244189929488E+000
       O  8.0403449207300470E-001  1.3371598102657374E+000 -7.5636458134638422E+000
       H  1.5429537854043982E+000  1.4055979107677043E+001  6.5347421138952750E+000
       H  2.4623548628925978E+000  1.3305190435491529E+001  7.6116623675830608E+000
       O  1.7116716399771381E+000  1.3932951824827500E+001  7.4750056888910938E+000
       H -6.6403947885203500E+000 -5.2679009740923437E+000  1.7670598941008912E+001
       H -7.2767454556918016E+000 -6.7114515603274052E+000  1.7950088374014133E+001
       O -6.8136895375715447E+000 -6.1720714282443234E+000  1.7290009062558042E+001
       H  1.8580245716413394E+001  1.9510135472286774E+000  1.5860724404977605E+001
       H  1.9023168396884074E+001  1.0942801494909127E+000  1.4632785485880621E+001
       O  1.8559206896514834E+001  1.8906795993344057E+000  1.4891096081493597E+001
       H  1.6026664322548253E+001 -4.4186608709788739E+000  2.9473086948482152E+001
       H  1.7382174975747887E+001 -5.2275623273669103E+000  2.9582267843908848E+001
       O  1.6992787231240847E+001 -4.2841373818685806E+000  2.9357723510878206E+001
       H  1.8970262007699041E+001  1.4267576505029027E+000  1.9577505269127567E+001
       H  1.9717353454961657E+001  2.3571316339736637E+000  2.0655805713325098E+001
       O  1.9602897334194992E+001  1.4604612971550228E+000  2.0373883385441438E+001
       H  1.0187136127727243E+001  2.6195586146988088E+000 -4.3013518182381238E+000
       H  1.0173547122314975E+001  1.9456488519673989E+000 -5.7657743744484087E+000
       O  9.5551379952024753E+000  2.2799570439409549E+000 -5.0636552909981791E+000
       H  1.0886045301914331E+001 -6.3916963428468261E+000 -5.3646570939419362E+000
       H  1.0700896611323849E+001 -6.0577380225957560E+000 -3.9692011046859208E+000
       O  1.0270139507064611E+001 -6.4686496142791770E+000 -4.6968714774209053E+000
       H  3.4445793750113737E+001  1.5131421134267981E+001  1.3058286135263021E+001
       H  3.5693525643815661E+001  1.5391005578889443E+001  1.3890482687933797E+001
       O  3.4843552150066678E+001  1.4845223888875420E+001  1.3943614134362017E+001
       H  1.9829593730243332E+001  9.5873229838238174E+000  8.4616146335518536E+000
       H  1.9615863092637550E+001  8.1780037068716194E+000  8.0546017725727115E+000
       O  1.9153034331569636E+001  8.9441391189952704E+000  8.5112942209774349E+000
       H  8.0998176191997757E+000 -7.3033644696788116E+000  7.9189241357435787E+000
       H  9.0716809266681295E+000 -6.2569238351468268E+000  8.4302249640472002E+000
       O  9.0201646465670002E+000 -7.2175018088308747E+000  8.1817856703426948E+000
       H -5.8112433912385146E+000  6.2651831994748957E+000  4.2337869991271884E+000
       H -4.3987885584061646E+000  5.8444110309157233E+000  4.5704807874439108E+000
       O -4.8600659114551954E+000  6.4731199803529895E+000  4.0275049562231064E+000
       H  1.4176506648999155E+001 -1.3621954818688225E+001 -2.1476771495799842E+000
       H  1.3216998341235264E+001 -1.2698024125910173E+001 -2.9241108972597050E+000