 # Version information for this restart file 
 # current date 2025-04-01 00:28:26.392
 # current working dir /ccc/scratch/cont003/gen2309/sicilana/NPT/128_H2O_4_NaCl_10_wt_673K_1000bar/BATCH_11_MD_T_673_P_1000_steps_1000_dt_0.5_NH2O_128_NaCl_4_abc_17.19_17.19_17.19_wt_9.20
 # Program compiled at                                       2024-10-31 15:04:21
 # Program compiled on                                                 topaze131
 # Program compiled for                                                   x86_64
 # Source code revision number                                                  
 &GLOBAL
   PRINT_LEVEL LOW
   PROJECT_NAME "brines"
   RUN_TYPE MD
   FLUSH_SHOULD_FLUSH T
 &END GLOBAL
 &MOTION
   &MD
     ENSEMBLE NPT_I
     STEPS 1000
     TIMESTEP  4.9999999999999994E-001
     STEP_START_VAL 27000
     TIME_START_VAL  1.3500000000006112E+004
     ECONS_START_VAL -2.4590398713531335E+003
     TEMPERATURE  6.7300000000000011E+002
     &BAROSTAT
       PRESSURE  1.0000000000000000E+003
       TIMECON  9.9999999999999989E+002
       &VELOCITY
          -8.8370753683381576E-006
       &END VELOCITY
       &MASS
           4.2836593343398705E+007
       &END MASS
       &THERMOSTAT
         TYPE CSVR
         &CSVR
           TIMECON  9.6755373060191388E+001
           &THERMOSTAT_ENERGY
               1.8621443421106721E-003
           &END THERMOSTAT_ENERGY
           &RNG_INIT
 Wiener process for Thermostat # 1        1 F T F   1.1587856137446484E+00        3946343319.0        4151349717.0         728979660.0        3761778739.0        1779370174.0        3550287819.0             12345.0             12345.0             12345.0             12345.0             12345.0             12345.0             12345.0             12345.0             12345.0             12345.0             12345.0             12345.0
           &END RNG_INIT
         &END CSVR
       &END THERMOSTAT
     &END BAROSTAT
     &THERMOSTAT
       TYPE CSVR
       &CSVR
         TIMECON  9.9999999999999989E+002
         &THERMOSTAT_ENERGY
            -8.1578796398189790E-001
         &END THERMOSTAT_ENERGY
         &RNG_INIT
 Wiener process for Thermostat # 1        1 F T F  -8.8036296398188363E-01         112843615.0         740851411.0        2238689315.0        3753697274.0        3535586528.0        2757055336.0             12345.0             12345.0             12345.0             12345.0             12345.0             12345.0             12345.0             12345.0             12345.0             12345.0             12345.0             12345.0
         &END RNG_INIT
       &END CSVR
     &END THERMOSTAT
     &AVERAGES T
       &RESTART_AVERAGES
         ITIMES_START 1
         AVECPU  2.3352007111556535E+001
         AVEHUGONIOT  0.0000000000000000E+000
         AVETEMP_BARO  3.1113672867697016E+002
         AVEPOT -2.4597253066299536E+003
         AVEKIN  1.2210143758282572E+000
         AVETEMP  6.5740048527127306E+002
         AVEKIN_QM  0.0000000000000000E+000
         AVETEMP_QM  0.0000000000000000E+000
         AVEVOL  3.8761763983777557E+004
         AVECELL_A  3.3766385182581836E+001
         AVECELL_B  3.3766385182581836E+001
         AVECELL_C  3.3766385182581836E+001
         AVEALPHA  9.0000000000000000E+001
         AVEBETA  9.0000000000000000E+001
         AVEGAMMA  9.0000000000000000E+001
         AVE_ECONS -1.3704728951229168E+002
         AVE_PRESS  4.0383966130275871E+002
         AVE_PXX  3.8108491288459902E+002
       &END RESTART_AVERAGES
     &END AVERAGES
   &END MD
   &PRINT
     &TRAJECTORY SILENT
       FILENAME =brines-1.xyz
       &EACH
         MD 1
       &END EACH
     &END TRAJECTORY
     &CELL SILENT
       FILENAME =brines-1.cell_xyz
       &EACH
         MD 1
       &END EACH
     &END CELL
     &VELOCITIES SILENT
       FILENAME =brines-1.vel
       &EACH
         MD 1
       &END EACH
     &END VELOCITIES
     &FORCES SILENT
       FILENAME =brines-1.force
       &EACH
         MD 1
       &END EACH
     &END FORCES
     &STRESS SILENT
       FILENAME =brines-1.stress
       &EACH
         MD 1
       &END EACH
     &END STRESS
     &RESTART SILENT
       FILENAME =brines-1.restart
       &EACH
         MD 1
       &END EACH
     &END RESTART
     &RESTART_HISTORY SILENT
       &EACH
         MD 50
       &END EACH
     &END RESTART_HISTORY
   &END PRINT
 &END MOTION
 &FORCE_EVAL
   METHOD QS
   STRESS_TENSOR ANALYTICAL
   &DFT
     BASIS_SET_FILE_NAME /ccc/work/cont003/gen2309/sicilana/DATA_CP2K/GTH_BASIS_SETS
     POTENTIAL_FILE_NAME /ccc/work/cont003/gen2309/sicilana/DATA_CP2K/GTH_POTENTIALS
     &SCF
       MAX_SCF 50
       EPS_SCF  9.9999999999999995E-008
       &OT T
         MINIMIZER DIIS
         PRECONDITIONER FULL_SINGLE_INVERSE
       &END OT
       &OUTER_SCF T
         EPS_SCF  9.9999999999999995E-008
         MAX_SCF 50
       &END OUTER_SCF
     &END SCF
     &QS
       EPS_DEFAULT  1.0000000000000000E-014
       EPSFIT  9.9999999999999995E-007
       EPSISO  9.9999999999999998E-013
       EPSRHO0  1.0000000000000000E-008
       QUADRATURE GC_LOG
       EXTRAPOLATION ASPC
       METHOD GAPW
     &END QS
     &MGRID
       NGRIDS 4
       CUTOFF  6.0000000000000000E+002
       REL_CUTOFF  6.0000000000000000E+001
     &END MGRID
     &XC
       DENSITY_CUTOFF  1.0000000000000000E-010
       GRADIENT_CUTOFF  1.0000000000000000E-010
       TAU_CUTOFF  1.0000000000000000E-010
       &XC_FUNCTIONAL NO_SHORTCUT
         &PBE T
           PARAMETRIZATION REVPBE
         &END PBE
       &END XC_FUNCTIONAL
       &VDW_POTENTIAL
         POTENTIAL_TYPE PAIR_POTENTIAL
         &PAIR_POTENTIAL
           R_CUTOFF  1.2000000000000000E+001
           TYPE DFTD3
           PARAMETER_FILE_NAME /ccc/work/cont003/gen2309/sicilana/DATA_CP2K/dftd3.dat
           REFERENCE_FUNCTIONAL "PBE"
           CALCULATE_C9_TERM T
           REFERENCE_C9_TERM T
           VERBOSE_OUTPUT T
           D3_EXCLUDE_KIND 3
         &END PAIR_POTENTIAL
       &END VDW_POTENTIAL
     &END XC
     &REAL_TIME_PROPAGATION
       INITIAL_WFN RT_RESTART
     &END REAL_TIME_PROPAGATION
     &PRINT
       &MO_CUBES SILENT
         WRITE_CUBE F
         NLUMO 10
         NHOMO 2
         &EACH
           MD 200
         &END EACH
       &END MO_CUBES
       &MOMENTS ON
         ADD_LAST NUMERIC
         COMMON_ITERATION_LEVELS 20000
         FILENAME =brines-1.dipoles
         REFERENCE COM
         &EACH
           MD 1
         &END EACH
       &END MOMENTS
     &END PRINT
   &END DFT
   &SUBSYS
     &CELL
       A  1.8643621845716709E+001  0.0000000000000000E+000  0.0000000000000000E+000
       B  0.0000000000000000E+000  1.8643621845716709E+001  0.0000000000000000E+000
       C  0.0000000000000000E+000  0.0000000000000000E+000  1.8643621845716709E+001
       MULTIPLE_UNIT_CELL 1 1 1
     &END CELL
     &COORD
       H  1.2944171660781238E+001  2.1591813139718393E+001  4.7295545063422582E+000
       H  1.2495978493835814E+001  2.0823379649923719E+001  3.4862740357298940E+000
       O  1.2919346344053917E+001  2.1621090135814423E+001  3.7703194359700429E+000
       H  7.0397780568647894E+000 -8.6772806056411422E+000  1.9532195302299269E+000
       H  6.5743463741288659E+000 -8.3658915367511710E+000  3.3844276015855455E+000
       O  6.1984812653774171E+000 -8.5548038495723748E+000  2.4332352995012756E+000
       H -1.0039960309263520E+001  4.6579392076781573E+001  4.7292541959170833E+001
       H -9.0035064928024013E+000  4.5738334537050918E+001  4.6485548913682592E+001
       O -9.1156600501422069E+000  4.6204112265608472E+001  4.7325898134607407E+001
       H  8.8274285279269140E+000  2.3796132941860158E+001  2.3033738792426551E+001
       H  7.8751625598358670E+000  2.3068362820707861E+001  2.3908746612087146E+001
       O  8.7210193624273398E+000  2.3659606670982580E+001  2.4005314292729828E+001
       H -1.6009238605691042E+001  5.6134635271186362E+000  1.1760611845569157E+001
       H -1.4566284967610196E+001  5.9845920917135143E+000  1.1735639119331539E+001
       O -1.5201181212577291E+001  5.5443105453333850E+000  1.1182785213184477E+001
       H  3.4450012567388377E+001  2.6465254457908006E+001 -6.5891383589538277E+000
       H  3.3049410655336494E+001  2.7105227940611492E+001 -7.1124198828737164E+000
       O  3.4027236029434782E+001  2.7298264025376877E+001 -7.0568463018963188E+000
       H -6.3239719105438512E+000  3.4840315296141076E+000  9.5250078029207366E+000
       H -5.0358663301791040E+000  2.7041278249605400E+000  9.2792469065786296E+000
       O -5.4944597363240648E+000  3.2752729195239128E+000  9.8710868001972560E+000
       H  2.5511451180585222E+001 -1.8612671460339385E+000 -5.3037855441914523E+000
       H  2.6197969780081131E+001 -3.7510586593241801E-001 -5.7811291375375751E+000
       O  2.5432901628578431E+001 -8.1169470082448647E-001 -5.3134761932317929E+000
       H  1.9854446635554254E+001  1.1893416033852368E+001  1.4445638556035826E+001
       H  2.1096194755117640E+001  1.2081756836797538E+001  1.3716302590321304E+001
       O  2.0346803812257725E+001  1.2659734147084405E+001  1.4074970017192898E+001
       H  2.4199373423603305E+001  4.4403135931063414E-001  2.4967091212850509E+001
       H  2.5025582212521513E+001  2.6363736591340692E-001  2.3712953669325202E+001
       O  2.4926119438848318E+001 -3.7528488529898339E-002  2.4566798184897173E+001
       H  3.0049999767520412E+000  2.0068248490073142E+000 -1.1965778652083097E+001
       H  2.5640520297742899E+000  5.9553640625170845E-001 -1.2378011298188994E+001
       O  3.3159199855362758E+000  1.0336210710872455E+000 -1.2042630180915351E+001
       H  1.2872743478982960E+001  4.6945143459431034E+000  2.6369342128873633E+001
       H  1.2925856738791992E+001  5.2498280220291553E+000  2.4868468440837596E+001
       O  1.2305232584402393E+001  5.0589242199901472E+000  2.5640501232649104E+001
       H  1.8340481230242840E+001  1.3060688201767665E+001  3.9137477802165104E+000
       H  1.7663305526557533E+001  1.4110648894439310E+001  4.6550635952700352E+000
       O  1.7560259249811196E+001  1.3200737569055207E+001  4.4255865537556396E+000
       H  7.9178225191699836E+000 -9.4595571552951210E+000 -2.2475203084397770E+000
       H  6.8246616497931809E+000 -9.1962632537305478E+000 -1.2052997441956623E+000
       O  7.8065364608526835E+000 -9.4231636382601884E+000 -1.2638459727686810E+000
       H  3.0151317179688863E+001  3.6430728927588881E+001 -8.1570975767881826E-001
       H  3.0463630777194179E+001  3.7473393704199751E+001 -1.6227557466601794E+000
       O  3.0101926538052329E+001  3.7392453859566416E+001 -7.6497071095521907E-001
       H  1.5694152318658142E+001  2.2991284513710886E+000 -1.0734009721328691E+001
       H  1.4621984988737566E+001  2.5933529476958799E+000 -1.1802002790658356E+001
       O  1.5142393492642073E+001  1.8339657473409507E+000 -1.1325876980238547E+001
       H  1.8615647166830421E+001  5.5387150590037482E-001  5.6551753947401942E+000
       H  1.9246907050633645E+001 -3.6821678098857835E-002  6.9926178110993176E+000
       O  1.9495010118855966E+001  2.5762514207290171E-001  6.0071189601382153E+000
       H  7.8325226357743887E+000  1.6841837199924428E-001  1.5858203397469731E+001
       H  8.6645908722619378E+000  1.0691672020045075E+000  1.6877882181608808E+001
       O  8.0411560551072316E+000  1.1274570647631681E+000  1.6136862196494249E+001
       H  5.4738253753899615E+000  1.6807804831319455E+001  6.9356104285570597E+000
       H  5.6169547839742160E+000  1.5318478711488170E+001  7.0676288111977730E+000
       O  5.2566212149024789E+000  1.6097481959364320E+001  7.5018855727165548E+000
       H  1.9018379783740951E+001  2.5900951202000222E+001  4.3687235757178433E-001
       H  1.9187860746497844E+001  2.6246018846286411E+001  1.8064319386129826E+000
       O  1.8468880978476086E+001  2.6062169506562665E+001  1.2169164125065328E+000
       H  1.4435828332253065E+001  1.2073056750901257E+001  1.9352965694160609E+001
       H  1.4464291422762184E+001  1.3719053600925900E+001  1.9557093686421371E+001
       O  1.4920599698889005E+001  1.2939299936063973E+001  1.9177824439510410E+001
       H  1.0822184672954148E+001 -1.1477208824416110E+001  1.5189596761701170E+001
       H  9.8526492557247298E+000 -1.0502309007535922E+001  1.5396906013445502E+001
       O  1.0823097936725818E+001 -1.0485135692822366E+001  1.5318593434009790E+001
       H  2.4158323226831659E+001  1.5835085747968314E+001  2.1864745331740046E+001
       H  2.5205308133353732E+001  1.4677678079860826E+001  2.1684049935583502E+001
       O  2.5037556685825489E+001  1.5593934547690091E+001  2.1365519348980399E+001
       H -1.6684020842450121E+001  4.9458141564341771E+000  1.4292031035609188E+001
       H -1.5273020209760540E+001  5.7465944715354347E+000  1.4461656917045682E+001
       O -1.6159905923498979E+001  5.5586792529255433E+000  1.4876912956935298E+001
       H -9.4136101491658486E-001  5.9640505634593755E+000  5.6029119609763214E+000
       H  5.1773024413505520E-001  5.6829435245849975E+000  5.4438774332043494E+000
       O -2.0696938294243775E-001  5.9958666351064105E+000  4.9698889062750009E+000
       H -5.7302346342756891E+000 -1.6719818690008509E+001  1.8365234101917778E+001
       H -4.7284885092080868E+000 -1.5496129572021614E+001  1.7923854374565899E+001
       O -5.6217337468088306E+000 -1.5789935873545287E+001  1.8160514430279683E+001
       H  2.7219826371545686E+001  9.5830346262750599E+000  2.0133054100869835E-001
       H  2.7324481117281991E+001  8.7689067490862111E+000  1.3908120254235152E+000
       O  2.7344313658272700E+001  9.6709755551782433E+000  1.1472528669599635E+000
       H  1.1273262113079705E+001 -8.3232338439304310E-001  2.5753241835861168E+001
       H  9.9590765754679502E+000 -9.8168128409247690E-001  2.6151874300501571E+001
       O  1.0816160948277671E+001 -1.3504482441791921E+000  2.6389260430081052E+001
       H -1.8749712515347727E+000  6.2842182156210766E+000 -4.6827107108549733E+000
       H -2.6966888706308998E+000  7.6329582400423197E+000 -4.1792156333112507E+000
       O -2.7163714082868893E+000  6.8211436900432805E+000 -4.6884455607320099E+000
       H  5.2484493452648096E+000  4.7876065196168645E+000  3.4580846384380122E+000
       H  4.5576861885063717E+000  6.0776786897437169E+000  3.2439610118293261E+000
       O  5.2824035788138302E+000  5.5496429426071670E+000  2.8402429967539375E+000
       H  5.1660012927902710E-001 -2.0201192032634623E+000  3.9764059963954890E+000
       H  2.4622882681684813E-001 -2.6062690885840785E+000  2.6870735974752056E+000
       O -3.0170995797636690E-001 -2.2086234413510146E+000  3.4530232961820237E+000
       H -5.0018791664331141E-001  2.3459009718119653E+001 -5.7012635419737636E+000
       H -9.2179785701595529E-001  2.2686338336706196E+001 -4.5032875151627616E+000
       O -7.8802668040733437E-001  2.3577355670716095E+001 -4.7859037979925887E+000
       H  2.2852241238964414E+001  2.2415650549079832E+001  1.2098911359159930E+001
       H  2.3887507747144010E+001  2.1709350128004427E+001  1.3069089487201202E+001
       O  2.2928854202273950E+001  2.1634628113142437E+001  1.2674814124282426E+001
       H  2.6045233370620036E+000 -2.1354954675248269E+001 -7.4219462784758274E+000
       H  4.0209565690215863E+000 -2.0663921899522631E+001 -7.1842007304138420E+000
       O  3.5906870038101033E+000 -2.1468997008157459E+001 -7.6575791608855672E+000
       H  6.8461407401424861E+000  2.4422135683058444E+000  1.4327305496697017E+001
       H  7.4438184747294986E+000  3.6537399171941169E+000  1.3851357476150858E+001
       O  6.5388881074779954E+000  3.2839139351076509E+000  1.3994242224003091E+001
       H  1.4852592209027353E+001  1.8661562524619562E+001 -1.7614999347571381E+001
       H  1.5634962298275546E+001  1.8212198755494345E+001 -1.6485701625039841E+001
       O  1.4687219803870494E+001  1.8497781047344390E+001 -1.6674290625578870E+001
       H  1.4463388644151500E+001 -9.2642464289297060E+000 -2.0978452060774515E+001
       H  1.5289112938405303E+001 -1.0523566903183729E+001 -2.0402065857976524E+001
       O  1.4880896263749076E+001 -1.0071867001360857E+001 -2.1233439276559782E+001
       H  1.5242364661515706E+001 -2.1783584679615148E-001  2.7634454335549925E+001
       H  1.3684993547945600E+001  5.4341385767698751E-002  2.7507111501024401E+001
       O  1.4288629277088891E+001 -6.7310419142121458E-001  2.7679246295774355E+001
       H  2.1454144094031104E+001  5.5800804393361645E+000  2.1163813342539864E+001
       H  2.0135737062626252E+001  5.9809964352684331E+000  2.1961322818339315E+001
       O  2.0569130640866327E+001  5.9926670619442373E+000  2.1022213039100254E+001
       H  1.6685439675297999E+001  1.8319843455933231E+001  1.1238446429913678E+001
       H  1.7807026005529245E+001  1.8882438876748409E+001  1.0488967895895698E+001
       O  1.6854633954511815E+001  1.9060590743770010E+001  1.0650854481188171E+001
       H  2.6383814481027219E+000  5.2239864285709026E-001  2.9718466148317306E+000
       H  2.6438462847223283E+000  1.4267100433698789E+000  1.8238084346018322E+000
       O  3.2467959217131037E+000  9.2242872554794209E-001  2.3211221696259754E+000
       H  2.1150175536469714E+001  2.2326900591861044E+001 -5.7230224000067134E+000
       H  1.9580445636266585E+001  2.1968644243493248E+001 -5.7706722013561551E+000
       O  2.0211898959700974E+001  2.2638336814520152E+001 -5.8579657295527410E+000
       H  2.4735954740441910E+000  3.2956941556390824E+001  1.4334295702424779E+001
       H  3.7214097677773310E+000  3.3580153858440312E+001  1.5307981566367314E+001
       O  2.8245831357029951E+000  3.3700952132222746E+001  1.4769203655649521E+001
       H  1.4996858975527713E+001  2.8386283106296162E+000  1.2388260507824036E+001
       H  1.4597226865392125E+001  1.6528951128299294E+000  1.3332718966026684E+001
       O  1.4354765402977002E+001  2.5063382112201600E+000  1.2974849681122690E+001
       H  1.5628047630234686E+001  1.6000589361747224E+001 -1.6736025924063711E+001
       H  1.4030686606720158E+001  1.5942669479782985E+001 -1.6887675764533466E+001
       O  1.4807411142016017E+001  1.5393787373901375E+001 -1.6730247984870704E+001
       H -8.7266433184063956E+000  1.4344123475185590E+001  8.2036873111166049E+000
       H -8.6444030197119890E+000  1.5140825103388096E+001  6.9397240055688707E+000
       O -9.2936862696274734E+000  1.4583066544542811E+001  7.4200881945144292E+000
       H  9.3957703428028694E+000  3.7838425100232428E+001  1.1568091054729354E+001
       H  9.7752699190960008E+000  3.7847151870614653E+001  1.3064729800149495E+001
       O  9.0350702958166700E+000  3.8061500405472302E+001  1.2485065703988839E+001
       H  5.3750673695875184E+000  6.0954623653710547E+000  1.9470781380016248E+001
       H  5.0397584122082195E+000  5.2880805663876531E+000  1.8289385524503015E+001
       O  4.9575453904273594E+000  6.1749891535167079E+000  1.8564536720556376E+001
       H -3.7338024820283642E+000  1.9169732681216210E+001 -1.6263127236286326E+000
       H -2.7462680381518196E+000  1.8716211240032870E+001 -4.0058326271250827E-001
       O -3.3958768029895383E+000  1.8488014467177869E+001 -1.0813089442014119E+000
       H -5.9492099186107810E+000  1.7227437773057275E+001  2.1147722937278910E+001
       H -7.4485800343189732E+000  1.7112063421117607E+001  2.0382319792046580E+001
       O -6.7090423640707471E+000  1.6589562427993549E+001  2.0769997833917120E+001
       H  1.5891483600034508E+001 -2.9491773660921128E+000  5.4852138313301699E+000
       H  1.7356391526146318E+001 -2.7554333501600010E+000  5.8285626735673333E+000
       O  1.6445368917996731E+001 -2.5748724424533465E+000  6.1342834064918303E+000
       H -3.0717072048939347E+001  1.3149760469531793E+000  2.1056891446014198E+001
       H -2.9854837019871759E+001  4.0384955827841396E-001  2.1775766543199762E+001
       O -3.0197588636637775E+001  1.3106445092462000E+000  2.1884627869393054E+001
       H  9.3114299344206710E+000  7.5196656791593455E+000  1.1662440152518204E+001
       H  1.0423501365211493E+001  7.1049198940345670E+000  1.2823298845741746E+001
       O  9.4878590721940661E+000  7.1267545242866337E+000  1.2532446298326157E+001
       H  1.5899745800805512E+001 -1.3766638244334359E+001  2.1980973128324585E+001
       H  1.5094517716544487E+001 -1.5029034890889044E+001  2.2050609153326839E+001
       O  1.5774416863493034E+001 -1.4554711545045294E+001  2.2502996353455980E+001
       H  5.9245645945927738E-001  1.3077671593439227E+001 -6.1180096798490826E+000
       H  8.8351696839165395E-001  1.4060330053006961E+001 -7.2836689461703612E+000
       O  4.9543283750396211E-001  1.3196139443829860E+001 -7.0816629070145432E+000
       H  1.8767828076847955E+001  6.6467050626518214E+000  1.6395624913131375E+001
       H  2.0331874001805648E+001  6.4969123322419380E+000  1.6620180961071213E+001
       O  1.9473708474945099E+001  6.7678056977653425E+000  1.7029570156811552E+001
       H  2.7020965224756828E+000  1.0285071961256937E+001  2.5722950552544162E+001
       H  1.9696316108417338E+000  8.9491945109340172E+000  2.6072790900169995E+001
       O  2.0414186802438388E+000  9.5877519982526245E+000  2.5382511877422676E+001
       H  3.8454251915531472E+000 -6.3969198937582119E+000 -6.9902608132210975E-001
       H  2.7477954345167679E+000 -6.3621362753957085E+000 -1.7617881481076230E+000
       O  3.1677672792139755E+000 -6.9782821749141473E+000 -1.1092426455099913E+000
       H  3.9051453538170016E+000  8.5347625247548553E+000  1.5613233461140457E+001
       H  3.9802346276659404E+000  9.8554873007652901E+000  1.6333575097676643E+001
       O  4.2443210545406220E+000  9.4614741740320216E+000  1.5468827656918885E+001
       H  6.1654689320621685E+000  2.5377985110947073E+001  3.3521293286065955E+001
       H  5.9493493460563531E+000  2.4085147263660399E+001  3.2843701969179136E+001
       O  5.6580454981851087E+000  2.4957295372578880E+001  3.2779923903624571E+001
       H  8.7311510229356859E+000  3.5560982108911190E+001 -4.9225639414859035E-001
       H  8.5947284578833987E+000  3.4037989838363494E+001 -6.8047486866812001E-001
       O  8.2931438219948710E+000  3.4772243989943753E+001 -1.4786730796433933E-001
       H -5.2923508076528430E-002  1.0813636870682531E+001  1.1527372976829691E+001
       H  7.0796631254393161E-001  1.1434555719979217E+001  1.0377882866573790E+001
       O  4.1155705967387707E-001  1.0532212092631820E+001  1.0649403631090083E+001
       H  1.4849372821522072E+001  1.3930302657450831E+001 -1.9613548869449758E+001
       H  1.5557582328195069E+001  1.4784084357790773E+001 -2.0645742760773199E+001
       O  1.4679611018167838E+001  1.4329747505968196E+001 -2.0522834164974199E+001
       H  1.2696796091049453E+001 -2.1588203103640664E+000  1.5193914490250750E+001
       H  1.3543448249435128E+001 -2.5686638103204622E+000  1.6279848065092736E+001
       O  1.2729005461401966E+001 -2.0636869752626961E+000  1.6132101620350060E+001
       H  1.6707039212567853E+001  9.7073465962491792E+000  1.9275397049036975E+001
       H  1.5408628683782208E+001  9.1664181294484166E+000  1.9980125024393740E+001
       O  1.5975075023543257E+001  1.0030953894626744E+001  1.9820171245957841E+001
       H  2.7870514992099618E+001 -4.7327284208618765E-002  1.9847970452656920E+001
       H  2.6653136131598902E+001 -9.5626223235513441E-001  1.9981228076242274E+001
       O  2.7444253013937605E+001 -6.7468510689705874E-001  2.0517000937995391E+001
       H  2.0169343695293527E+001  1.4770643498677208E+001  2.2171881727535528E+001
       H  2.0011946203762967E+001  1.4359392819353898E+001  2.0757141230522830E+001
       O  2.0664352469059192E+001  1.4764869866347997E+001  2.1323223408343491E+001
       H  1.3060306351771512E+001  5.0015564627509681E+000 -5.7635141141309081E+000
       H  1.2856614082382126E+001  5.9940992913431907E+000 -4.7028103251464435E+000
       O  1.2308176997299404E+001  5.4700796865576207E+000 -5.2806811457082166E+000
       H -3.3469175464723158E+000  1.2980714862829789E+001 -4.6201737769473858E+000
       H -3.2255766053555091E+000  1.4401164958404516E+001 -4.3098517373987466E+000
       O -3.3753454445262081E+000  1.3896328447809104E+001 -5.0345638046408583E+000
       H  8.4876820813213172E+000  7.6942691926204541E+000  1.3925005125180952E+001
       H  7.4260426542579587E+000  8.6424679513511418E+000  1.4573239551449072E+001
       O  7.9540702731046942E+000  7.8350164039314691E+000  1.4766832329908516E+001
       H -1.7200583714804996E+001 -3.9694426957373974E+000  6.4069373578363935E+000
       H -1.6055554755331507E+001 -3.6108953092116169E+000  5.5413769609389174E+000
       O -1.6984040884591796E+001 -3.5783275656040621E+000  5.6058730112148263E+000
       H -2.0145733212725353E-001  9.0412832842651785E+000 -4.9080355108117377E+000
       H -1.4814128355112668E+000  9.7608192802348022E+000 -4.5361833870916364E+000
       O -5.4120362410427703E-001  9.8804283256838250E+000 -4.6117163966374246E+000
       H  1.3790823820366931E+001  9.0779547839703003E+000  8.6007786205432737E+000
       H  1.2527257745680583E+001  8.1538568320394322E+000  8.1406900384826688E+000
       O  1.3301207452229141E+001  8.6662336980872592E+000  7.8449973178545935E+000
       H  2.0518480214421575E+000  1.1427243927277386E+001  4.8314751667996454E+000
       H  2.1171271391647055E+000  1.2918304584923860E+001  3.9803590330728866E+000
       O  2.1608860572633710E+000  1.1936587628173326E+001  4.0183802529397274E+000
       H  1.0867569302843942E+001  1.6943283157102261E+001 -9.4224091021669150E+000
       H  1.1540620487254801E+001  1.7367101420137892E+001 -7.9697547839397478E+000
       O  1.0841599872778113E+001  1.6869667958295985E+001 -8.4269033525684254E+000
       H  1.7257974686709481E+001  1.7558164594570091E+001  1.5550698439184538E+001
       H  1.6037758449814284E+001  1.7289817258026812E+001  1.6309904050991300E+001
       O  1.6919483997092808E+001  1.6957895225190136E+001  1.6151088007004670E+001
       H  4.9777452735789076E+000 -5.7541946481170134E+000 -1.2918539286937554E+001
       H  5.4002549078584385E+000 -5.6633952432515091E+000 -1.1462096980661510E+001
       O  5.0172510192267685E+000 -5.0728473641190632E+000 -1.2173069016752061E+001
       H  4.2095764544819740E+000  1.2859725336372536E+001  3.0240886302390591E+000
       H  5.5014910129502583E+000  1.1987228075162539E+001  2.9742220578949019E+000
       O  5.1228448041268981E+000  1.2816001495710852E+001  3.3983839749452658E+000
       H  1.2094791679306416E+001  8.9996954432516763E+000  1.0900011522458435E+001
       H  1.2011325204904699E+001  7.3739160405310828E+000  1.1341852792950684E+001
       O  1.2509369343879175E+001  8.0851299946655466E+000  1.0895404318143541E+001
       H  2.9106109433331517E+000  1.0529587859206355E+000 -7.6304544245735517E+000
       H  2.1490022131423809E+000  2.6045104742299219E-001 -8.5694991139831789E+000
       O  2.8788403941418363E+000  1.0401519908216365E-001 -7.8382305836279391E+000
       H  3.3852962955918939E+000  1.4281538797661334E+001  8.3503369735811859E+000
       H  1.9887091151806688E+000  1.4684784260785181E+001  8.2377403872024253E+000
       O  2.8438459746995770E+000  1.4962228725536828E+001  7.9031982307082531E+000
       H -8.2381682957901869E+000 -4.9819992739797199E+000  1.8259797142102943E+001
       H -7.0660017084648521E+000 -4.0351906328769322E+000  1.8283724593035682E+001
       O -8.0300424003847368E+000 -4.0933746712195322E+000  1.8048282093594835E+001
       H  1.7478904341347150E+001  1.4629715766398808E+000  1.5065769896655091E+001
       H  1.6711574421675330E+001  2.5576166744060025E+000  1.6021221712303621E+001
       O  1.7076332188752282E+001  2.3835550766157509E+000  1.5158296233176161E+001
       H  1.4542308622564782E+001 -3.2797112269788693E+000  2.8289347400335458E+001
       H  1.4260985496765471E+001 -4.5923562360208061E+000  2.7790861934446017E+001
       O  1.4663877877675484E+001 -4.1520275077213933E+000  2.8625378161126424E+001
       H  1.7871412710596925E+001  4.0325459736671743E-001  2.2116559343532312E+001
       H  1.7512451331237056E+001  1.8053332845799530E+000  2.1499698392240614E+001
       O  1.8197540704565011E+001  1.0252719125700656E+000  2.1314087771633552E+001
       H  1.1399807812872677E+001  2.9369148605983408E+000 -3.4022295915657419E+000
       H  1.1697599038976001E+001  2.7372754609463765E+000 -4.7992746563145250E+000
       O  1.1523360103793436E+001  2.1950748037925161E+000 -4.0165897231826255E+000
       H  9.7250597866090178E+000 -6.5128208825074063E+000 -4.3661642231675977E+000
       H  1.1064405597133405E+001 -5.9250517943139425E+000 -4.8429110103493178E+000
       O  1.0547903108878979E+001 -6.0349984160909989E+000 -3.9971073449914170E+000
       H  3.2571147960792302E+001  1.6429159532690154E+001  1.2813352619939621E+001
       H  3.1936502194413880E+001  1.5423404560029320E+001  1.3718089060297697E+001
       O  3.1723221795055430E+001  1.6255435885390430E+001  1.3290451869122652E+001
       H  2.1056532242638212E+001  6.3953103275302743E+000  8.3677063503962739E+000
       H  1.9851749465836569E+001  6.9209180476842098E+000  9.1762759137915122E+000
       O  2.0064454925857223E+001  6.6175238912891352E+000  8.2689399666576957E+000
       H  8.3089405298815482E+000 -6.3466607589220265E+000  7.9829129425396150E+000
       H  7.4659577906385408E+000 -7.3678783211629586E+000  8.7751731362367220E+000
       O  7.9838849816223467E+000 -7.2722858628016578E+000  7.9636535667269168E+000
       H -5.0694922132211993E+000  9.7702258749186992E+000  3.5900034504170435E+000
       H -5.6614250453411845E+000  8.5278316361893101E+000  4.2951332936527811E+000
       O -5.5596594464770712E+000  8.9165108574162417E+000  3.3959414888852502E+000
       H  1.6789299820304244E+001 -1.1985118816730177E+001  6.4726553237139084E-001
       H  1.5732935356262564E+001 -1.2691545948722931E+001 -5.6585034850574312E-001