 # Version information for this restart file 
 # current date 2025-03-31 23:56:58.494
 # current working dir /ccc/scratch/cont003/gen2309/sicilana/NPT/128_H2O_4_NaCl_10_wt_673K_1000bar/BATCH_11_MD_T_673_P_1000_steps_1000_dt_0.5_NH2O_128_NaCl_4_abc_17.19_17.19_17.19_wt_9.20
 # Program compiled at                                       2024-10-31 15:04:21
 # Program compiled on                                                 topaze131
 # Program compiled for                                                   x86_64
 # Source code revision number                                                  
 &GLOBAL
   PRINT_LEVEL LOW
   PROJECT_NAME "brines"
   RUN_TYPE MD
   FLUSH_SHOULD_FLUSH T
 &END GLOBAL
 &MOTION
   &MD
     ENSEMBLE NPT_I
     STEPS 1000
     TIMESTEP  4.9999999999999994E-001
     STEP_START_VAL 26950
     TIME_START_VAL  1.3475000000006152E+004
     ECONS_START_VAL -2.4590398713531335E+003
     TEMPERATURE  6.7300000000000011E+002
     &BAROSTAT
       PRESSURE  1.0000000000000000E+003
       TIMECON  9.9999999999999989E+002
       &VELOCITY
          -8.8165610734944700E-006
       &END VELOCITY
       &MASS
           4.2836593343398705E+007
       &END MASS
       &THERMOSTAT
         TYPE CSVR
         &CSVR
           TIMECON  9.6755373060191388E+001
           &THERMOSTAT_ENERGY
               1.9541186280010248E-003
           &END THERMOSTAT_ENERGY
           &RNG_INIT
 Wiener process for Thermostat # 1        1 F T F   1.4394733271762770E+00        1704444486.0        3795483800.0        2221577062.0         191963060.0         430287592.0        2670236472.0             12345.0             12345.0             12345.0             12345.0             12345.0             12345.0             12345.0             12345.0             12345.0             12345.0             12345.0             12345.0
           &END RNG_INIT
         &END CSVR
       &END THERMOSTAT
     &END BAROSTAT
     &THERMOSTAT
       TYPE CSVR
       &CSVR
         TIMECON  9.9999999999999989E+002
         &THERMOSTAT_ENERGY
            -8.1770950531322972E-001
         &END THERMOSTAT_ENERGY
         &RNG_INIT
 Wiener process for Thermostat # 1        1 F T F  -3.2782634509917141E-01        2556943910.0         106759878.0        1996892907.0        1569967074.0        2439735487.0        2382219840.0             12345.0             12345.0             12345.0             12345.0             12345.0             12345.0             12345.0             12345.0             12345.0             12345.0             12345.0             12345.0
         &END RNG_INIT
       &END CSVR
     &END THERMOSTAT
     &AVERAGES T
       &RESTART_AVERAGES
         ITIMES_START 1
         AVECPU  2.3325277613813391E+001
         AVEHUGONIOT  0.0000000000000000E+000
         AVETEMP_BARO  3.0782773012502770E+002
         AVEPOT -2.4597247256973019E+003
         AVEKIN  1.2210386962387412E+000
         AVETEMP  6.5741357950666520E+002
         AVEKIN_QM  0.0000000000000000E+000
         AVETEMP_QM  0.0000000000000000E+000
         AVEVOL  3.8750997546409482E+004
         AVECELL_A  3.3763255246550926E+001
         AVECELL_B  3.3763255246550926E+001
         AVECELL_C  3.3763255246550926E+001
         AVEALPHA  9.0000000000000000E+001
         AVEBETA  9.0000000000000000E+001
         AVEGAMMA  9.0000000000000000E+001
         AVE_ECONS -1.3662138181067280E+002
         AVE_PRESS  4.0253411944957702E+002
         AVE_PXX  3.7919023252296796E+002
       &END RESTART_AVERAGES
     &END AVERAGES
   &END MD
   &PRINT
     &TRAJECTORY SILENT
       FILENAME =brines-1.xyz
       &EACH
         MD 1
       &END EACH
     &END TRAJECTORY
     &CELL SILENT
       FILENAME =brines-1.cell_xyz
       &EACH
         MD 1
       &END EACH
     &END CELL
     &VELOCITIES SILENT
       FILENAME =brines-1.vel
       &EACH
         MD 1
       &END EACH
     &END VELOCITIES
     &FORCES SILENT
       FILENAME =brines-1.force
       &EACH
         MD 1
       &END EACH
     &END FORCES
     &STRESS SILENT
       FILENAME =brines-1.stress
       &EACH
         MD 1
       &END EACH
     &END STRESS
     &RESTART SILENT
       FILENAME =brines-1.restart
       &EACH
         MD 1
       &END EACH
     &END RESTART
     &RESTART_HISTORY SILENT
       &EACH
         MD 50
       &END EACH
     &END RESTART_HISTORY
   &END PRINT
 &END MOTION
 &FORCE_EVAL
   METHOD QS
   STRESS_TENSOR ANALYTICAL
   &DFT
     BASIS_SET_FILE_NAME /ccc/work/cont003/gen2309/sicilana/DATA_CP2K/GTH_BASIS_SETS
     POTENTIAL_FILE_NAME /ccc/work/cont003/gen2309/sicilana/DATA_CP2K/GTH_POTENTIALS
     &SCF
       MAX_SCF 50
       EPS_SCF  9.9999999999999995E-008
       &OT T
         MINIMIZER DIIS
         PRECONDITIONER FULL_SINGLE_INVERSE
       &END OT
       &OUTER_SCF T
         EPS_SCF  9.9999999999999995E-008
         MAX_SCF 50
       &END OUTER_SCF
     &END SCF
     &QS
       EPS_DEFAULT  1.0000000000000000E-014
       EPSFIT  9.9999999999999995E-007
       EPSISO  9.9999999999999998E-013
       EPSRHO0  1.0000000000000000E-008
       QUADRATURE GC_LOG
       EXTRAPOLATION ASPC
       METHOD GAPW
     &END QS
     &MGRID
       NGRIDS 4
       CUTOFF  6.0000000000000000E+002
       REL_CUTOFF  6.0000000000000000E+001
     &END MGRID
     &XC
       DENSITY_CUTOFF  1.0000000000000000E-010
       GRADIENT_CUTOFF  1.0000000000000000E-010
       TAU_CUTOFF  1.0000000000000000E-010
       &XC_FUNCTIONAL NO_SHORTCUT
         &PBE T
           PARAMETRIZATION REVPBE
         &END PBE
       &END XC_FUNCTIONAL
       &VDW_POTENTIAL
         POTENTIAL_TYPE PAIR_POTENTIAL
         &PAIR_POTENTIAL
           R_CUTOFF  1.2000000000000000E+001
           TYPE DFTD3
           PARAMETER_FILE_NAME /ccc/work/cont003/gen2309/sicilana/DATA_CP2K/dftd3.dat
           REFERENCE_FUNCTIONAL "PBE"
           CALCULATE_C9_TERM T
           REFERENCE_C9_TERM T
           VERBOSE_OUTPUT T
           D3_EXCLUDE_KIND 3
         &END PAIR_POTENTIAL
       &END VDW_POTENTIAL
     &END XC
     &REAL_TIME_PROPAGATION
       INITIAL_WFN RT_RESTART
     &END REAL_TIME_PROPAGATION
     &PRINT
       &MO_CUBES SILENT
         WRITE_CUBE F
         NLUMO 10
         NHOMO 2
         &EACH
           MD 200
         &END EACH
       &END MO_CUBES
       &MOMENTS ON
         ADD_LAST NUMERIC
         COMMON_ITERATION_LEVELS 20000
         FILENAME =brines-1.dipoles
         REFERENCE COM
         &EACH
           MD 1
         &END EACH
       &END MOMENTS
     &END PRINT
   &END DFT
   &SUBSYS
     &CELL
       A  1.8881604241334792E+001  0.0000000000000000E+000  0.0000000000000000E+000
       B  0.0000000000000000E+000  1.8881604241334792E+001  0.0000000000000000E+000
       C  0.0000000000000000E+000  0.0000000000000000E+000  1.8881604241334792E+001
       MULTIPLE_UNIT_CELL 1 1 1
     &END CELL
     &COORD
       H  1.2769752769918570E+001  2.2086826607907259E+001  4.5156956502167667E+000
       H  1.3191232394346837E+001  2.0922035910247853E+001  3.7072376116831616E+000
       O  1.3226699954591874E+001  2.1884388658899912E+001  3.6271279766682167E+000
       H  7.3850531244186577E+000 -8.6448437206640865E+000  2.5452352184695752E+000
       H  6.1013896715725489E+000 -8.6790604057358252E+000  3.5119386463296629E+000
       O  6.4380936727679083E+000 -8.5553359832288347E+000  2.5704582749087876E+000
       H -8.9444002900379562E+000  4.7632707727284917E+001  4.7745005406348085E+001
       H -9.5123967005702408E+000  4.6562010778680360E+001  4.6917603354601454E+001
       O -9.4385388671144348E+000  4.6742896698532633E+001  4.7901714866787572E+001
       H  9.0353392751388366E+000  2.4511858286234791E+001  2.3256528303760959E+001
       H  8.3458208069823723E+000  2.3367376813011095E+001  2.3940361715197199E+001
       O  8.8607842076825065E+000  2.4220843355086195E+001  2.4190687237051410E+001
       H -1.5872101332545272E+001  5.3429695208906836E+000  1.1171463362649140E+001
       H -1.4584723984266191E+001  6.1661317554705395E+000  1.1594330229603273E+001
       O -1.4939237885978466E+001  5.3789495457891521E+000  1.1124906726725083E+001
       H  3.4431543490488721E+001  2.7097917532726559E+001 -6.1024770693893782E+000
       H  3.3478506128464986E+001  2.7658435009878776E+001 -7.2199450926412911E+000
       O  3.4377229493001707E+001  2.7501755202145741E+001 -6.9924531587875141E+000
       H -6.5176590333966660E+000  3.8080281698248037E+000  9.5801344911978585E+000
       H -4.9358687083066464E+000  3.7915283632795860E+000  9.5283303285979724E+000
       O -5.7145708971349247E+000  3.3541871995015837E+000  9.8808464540094363E+000
       H  2.6048133180528271E+001 -1.7071238174790850E+000 -4.8910474066713556E+000
       H  2.6341038462399823E+001 -3.7728117273088374E-001 -5.4810364671541203E+000
       O  2.5569304307181266E+001 -9.3840333546400057E-001 -5.2712586622672868E+000
       H  1.9912112847693663E+001  1.2378827587656877E+001  1.4716997184954845E+001
       H  2.1399912427435822E+001  1.2267074379722157E+001  1.3952484994801665E+001
       O  2.0647468899507320E+001  1.2922901496297030E+001  1.4185429583678738E+001
       H  2.4039380606345624E+001  1.1638238160868451E-001  2.4749930515123374E+001
       H  2.5530449805973650E+001  2.6277381021155338E-001  2.3974292089787369E+001
       O  2.5008812241591528E+001 -1.3889689420727472E-001  2.4834049293758778E+001
       H  3.1801948076015640E+000  1.8056243704568842E+000 -1.1849202817119583E+001
       H  2.5361729528684647E+000  7.3425625928478022E-001 -1.2916710913474477E+001
       O  3.3731851914027873E+000  9.2389692594146622E-001 -1.2296756364512261E+001
       H  1.2926915140548846E+001  5.6541797646256899E+000  2.6410260446098707E+001
       H  1.2904833861900167E+001  4.8357784324856778E+000  2.5096855950086418E+001
       O  1.2377274918436482E+001  5.1705731019081105E+000  2.5852613985162684E+001
       H  1.8332227958458006E+001  1.3663572436143538E+001  3.5459118119616875E+000
       H  1.7735163204284891E+001  1.4117274679290462E+001  4.9195438348698346E+000
       O  1.7774667386855452E+001  1.3353360625742052E+001  4.3505458638176080E+000
       H  8.0783261104184003E+000 -1.0352463029758695E+001 -1.9954666610349006E+000
       H  7.0240424966152757E+000 -9.5206178523981091E+000 -1.2186475157236674E+000
       O  7.9636463194134226E+000 -9.7855249824457395E+000 -1.2943592797574128E+000
       H  3.0811924911186544E+001  3.6944291133365283E+001 -1.1501958148844011E+000
       H  3.0599895603551520E+001  3.8331294779410314E+001 -1.5241057730617107E+000
       O  3.0516829658560379E+001  3.7751404006007519E+001 -6.9129267961659835E-001
       H  1.5808473819498504E+001  2.3399307282831829E+000 -1.0999032684807824E+001
       H  1.5225106241583051E+001  2.0513391491217661E+000 -1.2277765514618242E+001
       O  1.5320537448295585E+001  1.6292018823200742E+000 -1.1409825019339944E+001
       H  1.9027569081399712E+001  8.1349669383925582E-001  5.8503791413994035E+000
       H  1.9634076705808695E+001 -2.5806674663139517E-001  6.7499725476694197E+000
       O  1.9839846529350517E+001  3.5053954486293654E-001  5.9933766724498652E+000
       H  7.3950200250667351E+000  6.6503094767681903E-001  1.6628659322245735E+001
       H  8.3253350301001650E+000  1.8331014069877825E+000  1.6839342358942464E+001
       O  8.1314101038976041E+000  1.1236056258187439E+000  1.6213532477427623E+001
       H  6.1120739499241559E+000  1.6733784185791144E+001  7.0228384576222398E+000
       H  5.1454621465925747E+000  1.5551662019664700E+001  7.4236136662855472E+000
       O  5.5878549384861058E+000  1.6369227285928236E+001  7.7431245608737429E+000
       H  1.9388635484055879E+001  2.6488468199682703E+001  7.6555158200729390E-001
       H  1.8308161363427629E+001  2.6500462660663931E+001  1.9417041393086871E+000
       O  1.8457575805037710E+001  2.6397811137899829E+001  1.0152423357974654E+000
       H  1.4581379909345481E+001  1.2429266996680978E+001  1.9116060933626741E+001
       H  1.4948768977191449E+001  1.3360774852854144E+001  2.0285318900632390E+001
       O  1.5247129936956652E+001  1.3043554451734970E+001  1.9407457870194683E+001
       H  1.1089465780162653E+001 -1.0868076692761276E+001  1.6362571054480515E+001
       H  9.8055826262567187E+000 -1.0829531401456338E+001  1.5593394941092523E+001
       O  1.0756763822916403E+001 -1.0710519777619472E+001  1.5457905144743032E+001
       H  2.4425843595673800E+001  1.5735247523091754E+001  2.1586688361318426E+001
       H  2.5541401573028278E+001  1.5344900569691069E+001  2.2641253696794891E+001
       O  2.5340773014302506E+001  1.5847361015223761E+001  2.1799371332355399E+001
       H -1.6851081698089633E+001  5.4024072630915692E+000  1.4325721677700500E+001
       H -1.5481914866716872E+001  5.8968410181783595E+000  1.4914076043920883E+001
       O -1.6429870172378116E+001  5.8926629868765046E+000  1.5027553972365039E+001
       H -8.9058882749729684E-001  5.6111466645963368E+000  5.8065424215581949E+000
       H  5.9332084568499954E-001  5.8510031409598602E+000  5.6790515161100217E+000
       O -2.1761298946953939E-001  6.0047974168027931E+000  5.1456098188337505E+000
       H -5.9957685538194792E+000 -1.6781828792033782E+001  1.8663076066917068E+001
       H -4.9701338142149369E+000 -1.5771377841725407E+001  1.8032799544504275E+001
       O -5.8953638617686561E+000 -1.5928667087119907E+001  1.8207621615888819E+001
       H  2.7518984487249398E+001  9.5857901718374254E+000  1.9897169360397135E-001
       H  2.8214509228885479E+001  9.1408023876440261E+000  1.6596438940988130E+000
       O  2.7865020698354684E+001  9.8995635712977474E+000  1.1603736459590870E+000
       H  1.2000476296232518E+001 -1.3889955285402178E+000  2.6583284290962425E+001
       H  1.0661844424551905E+001 -7.6960521540250715E-001  2.6007215597232086E+001
       O  1.0932142129395301E+001 -1.4981803287621112E+000  2.6556292047411031E+001
       H -2.3683268540956148E+000  6.1366190914538201E+000 -4.7922738261529849E+000
       H -3.1399028843598269E+000  7.1526432129585116E+000 -3.6628626096432439E+000
       O -2.8678940477436119E+000  6.9375082195668210E+000 -4.5978748613189033E+000
       H  4.6496991406467538E+000  5.1694467901815875E+000  3.1107199015803357E+000
       H  5.1956541996148777E+000  6.4654122747969183E+000  2.9897441453439302E+000
       O  5.4662645406918466E+000  5.6089702502026713E+000  2.7432851348031684E+000
       H  1.9145067239169530E-001 -1.6025272201115561E+000  4.1909495476582430E+000
       H  6.0853207561691747E-001 -2.4841787788670908E+000  3.0060071206862347E+000
       O -1.7464644634486193E-001 -2.0796787364537992E+000  3.4902185411304965E+000
       H -6.3275146453086573E-001  2.3775377741315953E+001 -5.7943949165021493E+000
       H -9.4599000535700351E-001  2.3134140345775052E+001 -4.3926242552419010E+000
       O -7.0812114763878375E-001  2.4010034565524613E+001 -4.8019930325053304E+000
       H  2.3494747352301292E+001  2.2848438337490702E+001  1.2344994172119963E+001
       H  2.3688160364901243E+001  2.2015253191375411E+001  1.3637633476978138E+001
       O  2.3060315261334026E+001  2.2131019855283551E+001  1.2859623260208734E+001
       H  2.5113394749579041E+000 -2.1896063384019467E+001 -7.4559207661204576E+000
       H  3.8215255927485168E+000 -2.1214873900995897E+001 -7.2301697751210607E+000
       O  3.3992357182776796E+000 -2.1796070954558733E+001 -7.8304213494699857E+000
       H  7.2160564060015133E+000  2.4114997247622680E+000  1.4476731463676039E+001
       H  6.8787794980576917E+000  3.1494659514915320E+000  1.3074734733482885E+001
       O  6.6365996833057377E+000  3.0898279457772371E+000  1.4073567864831153E+001
       H  1.4868021229806050E+001  1.9478529096162067E+001 -1.7580428405649478E+001
       H  1.5907106186919528E+001  1.9103757369158984E+001 -1.6738668440600172E+001
       O  1.4904164574799212E+001  1.8964937462844727E+001 -1.6796295991963710E+001
       H  1.4425210012876205E+001 -9.4816991616427693E+000 -2.1592883694792508E+001
       H  1.4821861189690138E+001 -1.0186075119002030E+001 -2.0376631474209436E+001
       O  1.4891813092839126E+001 -1.0283873296810784E+001 -2.1377817348602303E+001
       H  1.5160513002854582E+001 -9.9465894694264345E-001  2.7767357318217936E+001
       H  1.4482377051462867E+001  1.8163141164920721E-001  2.8225400259105363E+001
       O  1.4310038930225483E+001 -7.3529472361703541E-001  2.8023158064994043E+001
       H  2.1496844213386726E+001  5.4265298472890908E+000  2.0494908129489328E+001
       H  2.1024652352445500E+001  5.9067513094411206E+000  2.1995300820534208E+001
       O  2.1041138057961962E+001  6.1374448116926557E+000  2.1026713451080536E+001
       H  1.7528796864819707E+001  1.9337008891345274E+001  1.1679224595371407E+001
       H  1.7774793502086627E+001  1.9439210317020464E+001  1.0199923778115773E+001
       O  1.7050628423849542E+001  1.9207840395521202E+001  1.0850259156107674E+001
       H  2.5866613501812461E+000  3.0068097022806417E-001  2.1597996278443334E+000
       H  2.9083128727364351E+000  1.7163737967529498E+000  2.0270588919609880E+000
       O  3.2685036796022571E+000  9.2104184320936411E-001  2.4919163495081449E+000
       H  2.1413570162935994E+001  2.2633251662755924E+001 -6.1352268436171569E+000
       H  2.0148483813414934E+001  2.2227206699615017E+001 -5.5034727811469075E+000
       O  2.0519830076064164E+001  2.2976451331639129E+001 -6.0089559330309568E+000
       H  2.4393592706471923E+000  3.3229633643223394E+001  1.5031979950056408E+001
       H  3.3644539282624724E+000  3.3861618414573542E+001  1.6095514652226839E+001
       O  2.9860719381862304E+000  3.4086291920521617E+001  1.5212964914123766E+001
       H  1.4821070679406871E+001  2.1608864203939024E+000  1.2492817527298081E+001
       H  1.4392379910392235E+001  1.8055417517268246E+000  1.3888027600541905E+001
       O  1.4289361201080174E+001  2.5595895933541510E+000  1.3262218106212764E+001
       H  1.5716453424715770E+001  1.5819336634924705E+001 -1.7239217160206401E+001
       H  1.4318502173372364E+001  1.6395943015702766E+001 -1.6882231123915901E+001
       O  1.4779523144559606E+001  1.5561729978767975E+001 -1.6956877781510997E+001
       H -8.4682170136206363E+000  1.4505019238868451E+001  7.5130876307632892E+000
       H -9.1220582855423267E+000  1.5832612808943175E+001  7.5471197548031741E+000
       O -9.4039321107795963E+000  1.4952411545051252E+001  7.6682452941133086E+000
       H  9.6338904728754216E+000  3.8556783664807888E+001  1.1904769060051898E+001
       H  9.6353819112026873E+000  3.8737799748462329E+001  1.3395681013167293E+001
       O  9.0515453259580632E+000  3.8407043059082952E+001  1.2716722814854920E+001
       H  5.2698166777539504E+000  6.0965042764531931E+000  1.9539081292485033E+001
       H  4.6412652877096656E+000  5.5115367791399708E+000  1.8422732528910089E+001
       O  4.9144397459433211E+000  6.3719308389539044E+000  1.8684575969465953E+001
       H -3.7229037288842721E+000  1.8710241844656409E+001 -1.6419621475643826E+000
       H -2.3957657552666958E+000  1.9485030523318418E+001 -1.2298469917050410E+000
       O -3.1065745335982395E+000  1.8817023618902628E+001 -8.6535047403238352E-001
       H -6.4632985756647567E+000  1.7742374038531540E+001  2.1141698251535477E+001
       H -7.3871397715132892E+000  1.6759997035114576E+001  2.0513101367207003E+001
       O -6.6310563477063065E+000  1.6764247934473790E+001  2.1132000378210520E+001
       H  1.6856933323801535E+001 -2.7045022225140301E+000  5.2230303859748624E+000
       H  1.7578664312789389E+001 -2.0576852118062741E+000  6.3615335918499305E+000
       O  1.6726436779971316E+001 -2.5307343297133658E+000  6.1948130143694877E+000
       H -3.1095187531063775E+001  1.6614962739956791E+000  2.1109557363109491E+001
       H -2.9975112938038656E+001  6.9445499778296027E-001  2.1405541848465120E+001
       O -3.0571105532753194E+001  1.2451346411658166E+000  2.1854748401756439E+001
       H  9.5999340388139505E+000  8.1594048543680362E+000  1.2023057720379260E+001
       H  1.0379135245236462E+001  7.7820110531220781E+000  1.3365630216089345E+001
       O  9.7107429786168407E+000  7.4677662659194395E+000  1.2671859432809796E+001
       H  1.5749601236898306E+001 -1.3970732859085604E+001  2.2828528373941079E+001
       H  1.5033486455522757E+001 -1.5324387631126687E+001  2.2567916567409181E+001
       O  1.6003435713675767E+001 -1.4923880020550284E+001  2.2677542861072464E+001
       H  1.2906631949928562E+000  1.3369590528984842E+001 -6.3131149336065411E+000
       H  4.9201179137721213E-001  1.4534353071376962E+001 -7.0057552100633149E+000
       O  6.3950282251097501E-001  1.3581038942828457E+001 -7.0268981012650142E+000
       H  1.8990644704777516E+001  7.5713970047844343E+000  1.7002159379033646E+001
       H  1.9965150500121645E+001  6.5436444480566642E+000  1.6443178848992449E+001
       O  1.9650800841836883E+001  7.0020801042821690E+000  1.7328236077977760E+001
       H  2.7111365322207011E+000  9.9289928875645970E+000  2.6578766056177553E+001
       H  1.6301135073244282E+000  8.8913644833068588E+000  2.5827057783183253E+001
       O  2.2324766807877934E+000  9.7413943999944479E+000  2.5768602969804338E+001
       H  3.5406605407451552E+000 -6.9226324680535871E+000 -4.9327866955194111E-001
       H  2.4477451367394276E+000 -6.7988594063441274E+000 -1.3862916359429027E+000
       O  3.2933063142955961E+000 -7.2771193405049921E+000 -1.3635003158819021E+000
       H  4.0731908515714617E+000  8.6031641413554905E+000  1.5809764457595767E+001
       H  4.0348242493223845E+000  9.8345683518063218E+000  1.6645881599640671E+001
       O  4.3084819945871091E+000  9.6525728731007927E+000  1.5717872200225571E+001
       H  6.6439702055040506E+000  2.5570124188626021E+001  3.3324022945858736E+001
       H  6.0152220149700044E+000  2.4196082653930571E+001  3.3729150301231613E+001
       O  5.8542538865380269E+000  2.5002608209151052E+001  3.3268177922726061E+001
       H  8.6411781371391942E+000  3.5218869222954801E+001 -1.1308787052915152E+000
       H  9.1245932029734611E+000  3.4478560215585730E+001  1.8399880697159379E-001
       O  8.5216559791197550E+000  3.5175945686408745E+001 -1.7871573013094502E-001
       H  2.3750304679857137E-001  1.0171912938717281E+001  1.1566359624560430E+001
       H  1.1860859529939163E+000  1.1264057703650465E+001  1.0958502248529136E+001
       O  3.4109982065032951E-001  1.0748896658894811E+001  1.0825287983285520E+001
       H  1.4933937029509691E+001  1.4019040603630229E+001 -1.9868595691726401E+001
       H  1.5663397658388224E+001  1.4927089723290509E+001 -2.0546402761100325E+001
       O  1.4844299592729111E+001  1.4530333647135256E+001 -2.0698461799721709E+001
       H  1.2887593904046506E+001 -2.5150378777347564E+000  1.5489469810603357E+001
       H  1.3593552111380937E+001 -2.9239615336408011E+000  1.6866510220371694E+001
       O  1.3115958182254102E+001 -2.0642200514061355E+000  1.6392162958605681E+001
       H  1.6863035705765700E+001  1.0300595330390442E+001  1.9552926617925365E+001
       H  1.6292209281159920E+001  9.2669021898348394E+000  2.0397270527147192E+001
       O  1.6187091178590059E+001  1.0104748552254923E+001  2.0154445939818263E+001
       H  2.7951494588409844E+001  1.4073328251797076E-001  2.0506253278926739E+001
       H  2.7943010711716902E+001 -1.4819244423763804E+000  1.9988862177479231E+001
       O  2.7748984702511230E+001 -8.0522440789861260E-001  2.0716213109427532E+001
       H  2.0607220985502167E+001  1.4961273425868818E+001  2.2530053232164370E+001
       H  2.1125666461050841E+001  1.4279955795088480E+001  2.1271925193072889E+001
       O  2.0673851678778860E+001  1.5088839661061836E+001  2.1558183459974348E+001
       H  1.2353240511342673E+001  4.9411226066238738E+000 -6.1013586472069132E+000
       H  1.3205877160392498E+001  5.4853073328521971E+000 -4.9779832243260760E+000
       O  1.2269703299628912E+001  5.6326769690785419E+000 -5.3780267916271844E+000
       H -3.1771195782207204E+000  1.3093272484265890E+001 -4.7704275220396362E+000
       H -3.5647755430669004E+000  1.4464578342322890E+001 -4.0775269439397919E+000
       O -3.4690867464481685E+000  1.4024033987282795E+001 -5.0080772005158156E+000
       H  8.5289803060398715E+000  7.9229117179045243E+000  1.4158664552880367E+001
       H  7.3375461257949413E+000  8.8925241368196009E+000  1.4354264708842054E+001
       O  7.8963304239376715E+000  8.2763835816975675E+000  1.4822749486442335E+001
       H -1.7492334421991362E+001 -4.0095217777317558E+000  6.3477325300186882E+000
       H -1.6400536040882553E+001 -3.2014941175915577E+000  5.3750528699011157E+000
       O -1.7275018200550960E+001 -3.8279874324432073E+000  5.3826736293609798E+000
       H  8.1939881930766387E-002  9.0639121274523813E+000 -4.8689900059571709E+000
       H -1.4818372814427718E+000  9.5055133939918495E+000 -4.8118022048526745E+000
       O -5.7447806917487876E-001  9.7789319187955819E+000 -4.7674447313050665E+000
       H  1.3240119426768127E+001  9.2716737803642051E+000  8.8117631748710963E+000
       H  1.2616788433530157E+001  8.1091374739607023E+000  7.8952087792536432E+000
       O  1.3371897643549385E+001  8.7607580770791511E+000  7.9388547789238810E+000
       H  2.2907235085582962E+000  1.1120539581312606E+001  4.2856372695557008E+000
       H  1.9653705286196583E+000  1.2607636467178519E+001  4.6800228593970257E+000
       O  2.2464656419764295E+000  1.2069256763469131E+001  3.9551094780087923E+000
       H  1.0805414563439419E+001  1.7297206616084825E+001 -9.2407768072295173E+000
       H  1.1827824666908590E+001  1.6416213174784922E+001 -8.3916647710884202E+000
       O  1.1035415722441250E+001  1.7054263105964260E+001 -8.3568597627003403E+000
       H  1.6882963925494579E+001  1.7407982891078426E+001  1.5330943579702950E+001
       H  1.6971193228250907E+001  1.7674887379326538E+001  1.6935890249500190E+001
       O  1.6925300382201488E+001  1.6934562447756740E+001  1.6279239280366731E+001
       H  5.2994203688886792E+000 -5.5679427077206869E+000 -1.3167440553539437E+001
       H  5.0552999643699685E+000 -6.0260548685341817E+000 -1.1734511094434353E+001
       O  5.1038007121810853E+000 -5.1858244830696716E+000 -1.2267304729878846E+001
       H  4.2421762524949722E+000  1.2526025364562175E+001  3.7445364373078669E+000
       H  5.4636477048851217E+000  1.2418113409004182E+001  2.7308718311362954E+000
       O  5.1766973475584441E+000  1.2812537473591620E+001  3.5579800839230802E+000
       H  1.1635316892949621E+001  7.7548517445367091E+000  1.0872565870691579E+001
       H  1.2732081046449546E+001  7.2026046899358445E+000  1.1810890098984204E+001
       O  1.2552030926756187E+001  7.9878777719111529E+000  1.1184720636607674E+001
       H  3.2366815839418370E+000  1.2032606700863173E+000 -7.7171641660273727E+000
       H  2.1545766689064472E+000  6.4683652808700975E-001 -8.3797874163997896E+000
       O  2.7668708769875132E+000  3.2345572268724671E-001 -7.6742170894093009E+000
       H  3.0849340422772018E+000  1.4306538463617059E+001  8.1169823104428982E+000
       H  2.5257098578167496E+000  1.5326267404807412E+001  9.0784400190581707E+000
       O  2.7294077347789885E+000  1.5216237093339499E+001  8.0920267611099934E+000
       H -7.3512320182807320E+000 -5.0194534594918157E+000  1.7865450813946534E+001
       H -7.4184965672638299E+000 -3.5091676007309092E+000  1.8561355238867204E+001
       O -7.9434238546989206E+000 -4.2604919150813227E+000  1.8121728887752653E+001
       H  1.7649449096065752E+001  1.5462126884796146E+000  1.4802556506968918E+001
       H  1.7417043448850059E+001  2.1299757838115703E+000  1.6212383430639179E+001
       O  1.7202318587853970E+001  2.2913262465785169E+000  1.5322831301356947E+001
       H  1.4886231021736934E+001 -3.4021172890000773E+000  2.9074068140167128E+001
       H  1.4399519320346748E+001 -4.5799416044798749E+000  2.8309059788080180E+001
       O  1.4900854282329810E+001 -4.3748414559325246E+000  2.9106036084824105E+001
       H  1.8206426713517832E+001  4.9295314778590704E-001  2.2196983408329270E+001
       H  1.8352345402956296E+001  2.0707426559981945E+000  2.1612134100837114E+001
       O  1.8290297613186198E+001  1.1421330636858296E+000  2.1457768616611883E+001
       H  1.1543736527245981E+001  2.7839994440045142E+000 -3.2041826202907466E+000
       H  1.2191789135896073E+001  2.6736498058193146E+000 -4.6882722741656533E+000
       O  1.1625367985949209E+001  2.1866831323095250E+000 -3.9178731268230313E+000
       H  9.6569179199213302E+000 -6.2519380869798686E+000 -4.2062551028995374E+000
       H  1.1243088370349858E+001 -5.9963711512037108E+000 -4.7362364353640389E+000
       O  1.0631758669831214E+001 -6.0351901153198497E+000 -3.8960499734741809E+000
       H  3.2842240179729984E+001  1.7022641004338659E+001  1.2864238619480599E+001
       H  3.2557597402023184E+001  1.5514015853921377E+001  1.2955831272862845E+001
       O  3.2299488751157817E+001  1.6351660111110842E+001  1.3416417000837201E+001
       H  2.1084946844469474E+001  7.1004168780429140E+000  9.0972088784694201E+000
       H  1.9498350064464550E+001  7.1315575585117816E+000  8.9256197206265870E+000
       O  2.0346663503143962E+001  6.8660575436677354E+000  8.4387445798006002E+000
       H  8.6776026093354783E+000 -6.5007971811912801E+000  7.8293147132663421E+000
       H  7.6514827636726190E+000 -6.8386147865906661E+000  8.7881796133703478E+000
       O  8.1945359905348862E+000 -7.3183651757334589E+000  8.0596469381156393E+000
       H -4.9422429343363188E+000  9.3670991923024740E+000  3.9197111395205981E+000
       H -5.3887481167304481E+000  7.9271639635994928E+000  3.6500929524152044E+000
       O -5.6360664134811937E+000  8.8386493420548540E+000  3.5224138324240988E+000
       H  1.7119088478910506E+001 -1.1861920129663028E+001  2.7458700376377632E-001
       H  1.6431919561293231E+001 -1.2536809192206583E+001 -7.5127051733832284E-001