 # Version information for this restart file 
 # current date 2025-03-31 20:14:10.565
 # current working dir /ccc/scratch/cont003/gen2309/sicilana/NPT/128_H2O_4_NaCl_10_wt_673K_1000bar/BATCH_11_MD_T_673_P_1000_steps_1000_dt_0.5_NH2O_128_NaCl_4_abc_17.19_17.19_17.19_wt_9.20
 # Program compiled at                                       2024-10-31 15:04:21
 # Program compiled on                                                 topaze131
 # Program compiled for                                                   x86_64
 # Source code revision number                                                  
 &GLOBAL
   PRINT_LEVEL LOW
   PROJECT_NAME "brines"
   RUN_TYPE MD
   FLUSH_SHOULD_FLUSH T
 &END GLOBAL
 &MOTION
   &MD
     ENSEMBLE NPT_I
     STEPS 1000
     TIMESTEP  4.9999999999999994E-001
     STEP_START_VAL 26550
     TIME_START_VAL  1.3275000000006459E+004
     ECONS_START_VAL -2.4590398713531335E+003
     TEMPERATURE  6.7300000000000011E+002
     &BAROSTAT
       PRESSURE  1.0000000000000000E+003
       TIMECON  9.9999999999999989E+002
       &VELOCITY
           7.3337567925695576E-006
       &END VELOCITY
       &MASS
           4.2836593343398705E+007
       &END MASS
       &THERMOSTAT
         TYPE CSVR
         &CSVR
           TIMECON  9.6755373060191388E+001
           &THERMOSTAT_ENERGY
               1.3963124266846490E-003
           &END THERMOSTAT_ENERGY
           &RNG_INIT
 Wiener process for Thermostat # 1        1 F T F  -5.9573539582230028E-01        3672600413.0        2289498078.0        3701018785.0         357983386.0         549961329.0        3614208948.0             12345.0             12345.0             12345.0             12345.0             12345.0             12345.0             12345.0             12345.0             12345.0             12345.0             12345.0             12345.0
           &END RNG_INIT
         &END CSVR
       &END THERMOSTAT
     &END BAROSTAT
     &THERMOSTAT
       TYPE CSVR
       &CSVR
         TIMECON  9.9999999999999989E+002
         &THERMOSTAT_ENERGY
            -7.8695176690951829E-001
         &END THERMOSTAT_ENERGY
         &RNG_INIT
 Wiener process for Thermostat # 1        1 F T F  -1.2513807056096435E+00         384277642.0        2724693616.0        4200397132.0        4205070357.0        1178795613.0        2804754957.0             12345.0             12345.0             12345.0             12345.0             12345.0             12345.0             12345.0             12345.0             12345.0             12345.0             12345.0             12345.0
         &END RNG_INIT
       &END CSVR
     &END THERMOSTAT
     &AVERAGES T
       &RESTART_AVERAGES
         ITIMES_START 1
         AVECPU  2.3173195115319047E+001
         AVEHUGONIOT  0.0000000000000000E+000
         AVETEMP_BARO  3.0676409948148040E+002
         AVEPOT -2.4597202853005065E+003
         AVEKIN  1.2217484956827662E+000
         AVETEMP  6.5779573921598808E+002
         AVEKIN_QM  0.0000000000000000E+000
         AVETEMP_QM  0.0000000000000000E+000
         AVEVOL  3.8657521812711275E+004
         AVECELL_A  3.3736257232719325E+001
         AVECELL_B  3.3736257232719325E+001
         AVECELL_C  3.3736257232719325E+001
         AVEALPHA  9.0000000000000000E+001
         AVEBETA  9.0000000000000000E+001
         AVEGAMMA  9.0000000000000000E+001
         AVE_ECONS -1.3315502163955441E+002
         AVE_PRESS  3.9648989000023357E+002
         AVE_PXX  3.7434744802018884E+002
       &END RESTART_AVERAGES
     &END AVERAGES
   &END MD
   &PRINT
     &TRAJECTORY SILENT
       FILENAME =brines-1.xyz
       &EACH
         MD 1
       &END EACH
     &END TRAJECTORY
     &CELL SILENT
       FILENAME =brines-1.cell_xyz
       &EACH
         MD 1
       &END EACH
     &END CELL
     &VELOCITIES SILENT
       FILENAME =brines-1.vel
       &EACH
         MD 1
       &END EACH
     &END VELOCITIES
     &FORCES SILENT
       FILENAME =brines-1.force
       &EACH
         MD 1
       &END EACH
     &END FORCES
     &STRESS SILENT
       FILENAME =brines-1.stress
       &EACH
         MD 1
       &END EACH
     &END STRESS
     &RESTART SILENT
       FILENAME =brines-1.restart
       &EACH
         MD 1
       &END EACH
     &END RESTART
     &RESTART_HISTORY SILENT
       &EACH
         MD 50
       &END EACH
     &END RESTART_HISTORY
   &END PRINT
 &END MOTION
 &FORCE_EVAL
   METHOD QS
   STRESS_TENSOR ANALYTICAL
   &DFT
     BASIS_SET_FILE_NAME /ccc/work/cont003/gen2309/sicilana/DATA_CP2K/GTH_BASIS_SETS
     POTENTIAL_FILE_NAME /ccc/work/cont003/gen2309/sicilana/DATA_CP2K/GTH_POTENTIALS
     &SCF
       MAX_SCF 50
       EPS_SCF  9.9999999999999995E-008
       &OT T
         MINIMIZER DIIS
         PRECONDITIONER FULL_SINGLE_INVERSE
       &END OT
       &OUTER_SCF T
         EPS_SCF  9.9999999999999995E-008
         MAX_SCF 50
       &END OUTER_SCF
     &END SCF
     &QS
       EPS_DEFAULT  1.0000000000000000E-014
       EPSFIT  9.9999999999999995E-007
       EPSISO  9.9999999999999998E-013
       EPSRHO0  1.0000000000000000E-008
       QUADRATURE GC_LOG
       EXTRAPOLATION ASPC
       METHOD GAPW
     &END QS
     &MGRID
       NGRIDS 4
       CUTOFF  6.0000000000000000E+002
       REL_CUTOFF  6.0000000000000000E+001
     &END MGRID
     &XC
       DENSITY_CUTOFF  1.0000000000000000E-010
       GRADIENT_CUTOFF  1.0000000000000000E-010
       TAU_CUTOFF  1.0000000000000000E-010
       &XC_FUNCTIONAL NO_SHORTCUT
         &PBE T
           PARAMETRIZATION REVPBE
         &END PBE
       &END XC_FUNCTIONAL
       &VDW_POTENTIAL
         POTENTIAL_TYPE PAIR_POTENTIAL
         &PAIR_POTENTIAL
           R_CUTOFF  1.2000000000000000E+001
           TYPE DFTD3
           PARAMETER_FILE_NAME /ccc/work/cont003/gen2309/sicilana/DATA_CP2K/dftd3.dat
           REFERENCE_FUNCTIONAL "PBE"
           CALCULATE_C9_TERM T
           REFERENCE_C9_TERM T
           VERBOSE_OUTPUT T
           D3_EXCLUDE_KIND 3
         &END PAIR_POTENTIAL
       &END VDW_POTENTIAL
     &END XC
     &REAL_TIME_PROPAGATION
       INITIAL_WFN RT_RESTART
     &END REAL_TIME_PROPAGATION
     &PRINT
       &MO_CUBES SILENT
         WRITE_CUBE F
         NLUMO 10
         NHOMO 2
         &EACH
           MD 200
         &END EACH
       &END MO_CUBES
       &MOMENTS ON
         ADD_LAST NUMERIC
         COMMON_ITERATION_LEVELS 20000
         FILENAME =brines-1.dipoles
         REFERENCE COM
         &EACH
           MD 1
         &END EACH
       &END MOMENTS
     &END PRINT
   &END DFT
   &SUBSYS
     &CELL
       A  1.8600846755797132E+001  0.0000000000000000E+000  0.0000000000000000E+000
       B  0.0000000000000000E+000  1.8600846755797132E+001  0.0000000000000000E+000
       C  0.0000000000000000E+000  0.0000000000000000E+000  1.8600846755797132E+001
       MULTIPLE_UNIT_CELL 1 1 1
     &END CELL
     &COORD
       H  1.1054267579965275E+001  2.2166048360332283E+001  1.6578637714334310E+000
       H  1.1860150627150510E+001  2.1118416659642289E+001  2.2744092665901148E+000
       O  1.1499567000522381E+001  2.2032643496112630E+001  2.4779906529446571E+000
       H  7.9326244088394038E+000 -8.7156420256476324E+000  2.5610739305355792E+000
       H  6.7573478331273726E+000 -9.5048181148667314E+000  2.9644415757559437E+000
       O  7.2085376124995681E+000 -8.6502439962394888E+000  3.1828901158491631E+000
       H -1.0128505382011900E+001  4.6712518911892126E+001  4.5714333763864758E+001
       H -9.2972735254757861E+000  4.5356308039761522E+001  4.6008269870053859E+001
       O -9.8868394176287282E+000  4.6070493054546795E+001  4.6418073282683558E+001
       H  7.7283321177109254E+000  2.4311415334385551E+001  2.3183909057251913E+001
       H  8.5857658520863112E+000  2.3708375273562467E+001  2.2065957997113930E+001
       O  8.1086626609572612E+000  2.3441105931233970E+001  2.2894520458108754E+001
       H -1.1366699338536849E+001  5.3362650768853417E+000  8.4973706029143319E+000
       H -1.0996816731554617E+001  6.1244695616597040E+000  9.6815295228577902E+000
       O -1.1556447863972041E+001  5.4136307399477435E+000  9.4775496538492341E+000
       H  3.2793758512909328E+001  2.7766602217348833E+001 -6.2348931080129333E+000
       H  3.2513416981291748E+001  2.6306803259124706E+001 -6.7406946913000123E+000
       O  3.3176106634037573E+001  2.6934654408820720E+001 -6.3802200994545606E+000
       H -5.0425544026989657E+000  4.4306531878434328E+000  8.8075199097071710E+000
       H -4.6410037438221314E+000  4.2408074570689420E+000  1.0261887490061232E+001
       O -5.2801141767934681E+000  3.9645721893558337E+000  9.6676441202219596E+000
       H  2.3957683205605985E+001 -1.4630339349499748E+000 -3.2427300770817777E+000
       H  2.4728155531700864E+001 -1.8539391925785090E-001 -3.3773492112453143E+000
       O  2.4460612295337651E+001 -8.9157460554853685E-001 -3.9392753417330764E+000
       H  2.1108256693461634E+001  1.2442265961520556E+001  1.4957955907791167E+001
       H  2.1551336250709479E+001  1.2686923458819674E+001  1.3537452226716178E+001
       O  2.0846977549786175E+001  1.3053487229099717E+001  1.4123206141536706E+001
       H  2.3369506997244606E+001 -1.5259066315879464E+000  2.3117551464799451E+001
       H  2.4862441610769508E+001 -1.5270094191255530E+000  2.3619908127923086E+001
       O  2.4068831890809562E+001 -9.6159595369133188E-001  2.3275650312325514E+001
       H  4.1877152333298415E+000  1.3490914525401922E+000 -1.0332432858871401E+001
       H  3.4328396607527782E+000  1.1477992471703362E+000 -1.1697820401572203E+001
       O  3.6146942205702728E+000  7.5327690001484415E-001 -1.0818085479115105E+001
       H  1.3060858106989462E+001  4.9633660397800821E+000  2.4401797299487001E+001
       H  1.1885926792923994E+001  4.4385826165495210E+000  2.3433940925373019E+001
       O  1.2148026933788916E+001  5.1422837202840235E+000  2.4023741770094748E+001
       H  1.7039073788919076E+001  1.3056609247697619E+001  3.7098979004428312E+000
       H  1.5635983034768032E+001  1.3389916206349259E+001  3.2784590412795853E+000
       O  1.6602790312206217E+001  1.3774153306703363E+001  3.1975433108069757E+000
       H  7.6556540459620779E+000 -1.0604114750908906E+001 -1.9919508675958464E+000
       H  6.9837185625067297E+000 -1.1415898977835152E+001 -1.0166058434048546E+000
       O  7.7004107506460890E+000 -1.0752393558973218E+001 -1.0535859442469027E+000
       H  2.9590160181821414E+001  3.5735788179365933E+001 -8.0794567899258685E-001
       H  3.0685519537275610E+001  3.6678604322714946E+001 -4.8201470466619067E-001
       O  2.9699218818829298E+001  3.6607975223659679E+001 -2.8132732509120023E-001
       H  1.4823376722622148E+001  2.7671623770565050E+000 -1.1100204058483882E+001
       H  1.3995157681795732E+001  2.3910238598700895E+000 -9.8859652810285699E+000
       O  1.4829514190284049E+001  2.1584758636672605E+000 -1.0411396238199623E+001
       H  1.9020232780155240E+001  8.7034741519446479E-001  4.9964700222699401E+000
       H  1.9511264214886975E+001  4.4971990884098018E-001  6.3185455627526741E+000
       O  1.9859026850205414E+001  7.8342927579529187E-001  5.4724453983144326E+000
       H  8.4770460066162929E+000  1.0412645656192476E+000  1.7177869582432049E+001
       H  8.7647219620320591E+000  5.4246032440225078E-001  1.5849627512502616E+001
       O  8.1455303979538165E+000  4.1212450153375341E-001  1.6545989131710151E+001
       H  4.7181423765485500E+000  1.7244779299424295E+001  6.9761713189291514E+000
       H  5.5125339553403325E+000  1.5811837410031353E+001  7.3212140480117593E+000
       O  4.7877439251348139E+000  1.6446120219304429E+001  7.5987826037638619E+000
       H  1.8453509613120932E+001  2.5787188137026003E+001  1.8240330402875509E+000
       H  1.9899490354900628E+001  2.5557920005618243E+001  1.5493017676185141E+000
       O  1.9354819610129653E+001  2.6279585350931750E+001  1.9330539090206298E+000
       H  1.6791051158827148E+001  1.2167942853771580E+001  1.9881313266251286E+001
       H  1.5821145114505507E+001  1.2135180990805083E+001  1.8591163264201398E+001
       O  1.6009715003888250E+001  1.1715263020657439E+001  1.9444010259746516E+001
       H  1.0745203965425954E+001 -1.1608687515226853E+001  1.6574554011066905E+001
       H  9.4105976897218717E+000 -1.1641009199075279E+001  1.6035781433052257E+001
       O  1.0187876738810690E+001 -1.1091968538957516E+001  1.5940089299937465E+001
       H  2.5419830680074359E+001  1.5012674829473481E+001  2.2104591666212677E+001
       H  2.4768879508658301E+001  1.4164645471018297E+001  2.3207390201252622E+001
       O  2.5600258623459620E+001  1.4439877371073166E+001  2.2912447229698806E+001
       H -1.5606324172734553E+001  7.4511595371406889E+000  1.4344727683159485E+001
       H -1.6434308376897615E+001  6.2402051735674879E+000  1.3793948864962859E+001
       O -1.6487062900851413E+001  7.1186990202482523E+000  1.4293589973891482E+001
       H -7.2285681032606997E-001  6.1605904148188815E+000  5.7661266969754621E+000
       H  3.1338556028093795E-001  6.1454707993578435E+000  7.0069328613355770E+000
       O -2.0474895983788226E-003  5.6294646480721937E+000  6.2007037746947811E+000
       H -6.5220172881046814E+000 -1.5196550740289393E+001  1.7601082807800363E+001
       H -5.9331608300032599E+000 -1.6592025540221293E+001  1.7691079229464062E+001
       O -6.7563345396464349E+000 -1.6111787540450468E+001  1.7859470437826264E+001
       H  2.7493993126044760E+001  9.0156438301571225E+000  2.5577617462082003E-001
       H  2.8516237446980835E+001  8.7115146549048603E+000  1.3450262522004397E+000
       O  2.8081821973857075E+001  9.3940745080676873E+000  8.7639974071716586E-001
       H  1.2056677115650876E+001 -1.5162495538802454E+000  2.5534379058216878E+001
       H  1.0913641966462936E+001 -1.6412204048881991E+000  2.4381209796362239E+001
       O  1.1477193972876330E+001 -2.1604886405673516E+000  2.5066119971837885E+001
       H -4.1668769671435202E+000  7.5091115192289317E+000 -4.7430437829213243E+000
       H -5.4095645712750322E+000  7.5152193422852482E+000 -3.7461640577138002E+000
       O -4.5001895502264313E+000  7.2171933272949778E+000 -3.8424220090780685E+000
       H  6.3461961338954387E+000  5.2074568988936409E+000  1.8437624088592452E+000
       H  7.5143873002697203E+000  5.9687038187594279E+000  1.0995351070838055E+000
       O  6.5343369331136323E+000  5.9400543930867666E+000  1.2926906831777463E+000
       H  1.3371425164568760E+000 -1.1207279007357616E+000  3.0262004105108384E+000
       H  7.8427152495828045E-002 -6.6069381796143245E-001  2.4812851840929668E+000
       O  4.6867470411828649E-001 -1.5764970957837559E+000  2.7847464625830662E+000
       H -2.9983380569733264E+000  2.3407468888096780E+001 -4.3085259315920217E+000
       H -1.8657605617472892E+000  2.2450494139215458E+001 -4.6890476496012550E+000
       O -2.4870596598408468E+000  2.3146477853958878E+001 -5.1521439905766995E+000
       H  2.2406422538097637E+001  2.3080118945637714E+001  1.1708795551333859E+001
       H  2.3821640545828476E+001  2.2706067773107659E+001  1.2173115164824965E+001
       O  2.2902343347860391E+001  2.2552085096044049E+001  1.2312216267562382E+001
       H  2.5679667843480343E+000 -2.0104957678936785E+001 -6.5182543813394771E+000
       H  3.5868397599592754E+000 -1.9236958372888811E+001 -7.2015207306789542E+000
       O  3.0429504405531591E+000 -2.0056066564909585E+001 -7.2976623833504766E+000
       H  7.2311751527587411E+000  1.4142985512438111E+000  1.3248316463534866E+001
       H  8.0740191992958472E+000  2.5896801934819229E+000  1.2795624888229106E+001
       O  7.1233192850825784E+000  2.3418710022196754E+000  1.2883040894047243E+001
       H  1.4632517093909902E+001  2.0247254685305638E+001 -1.6601986619807391E+001
       H  1.4647031222139749E+001  1.9911182273603053E+001 -1.7907248989788926E+001
       O  1.3976635353587074E+001  1.9808766635997870E+001 -1.7160282997215152E+001
       H  1.2643699963748324E+001 -8.8068722225432552E+000 -1.9855675917306613E+001
       H  1.3846756855997779E+001 -9.9286807708411082E+000 -2.0126283318405882E+001
       O  1.3225187065589415E+001 -9.4841396283960577E+000 -1.9491782366772743E+001
       H  1.3812644732793375E+001 -1.3632064183116381E+000  2.8536608543969777E+001
       H  1.2894813000129393E+001 -2.6069939206470352E+000  2.8291979093975449E+001
       O  1.3589777535505222E+001 -2.1050796266946490E+000  2.7896684829464149E+001
       H  2.1812340817277875E+001  5.7507910660912520E+000  1.8908156364954422E+001
       H  2.0643981248078550E+001  5.1444822060043442E+000  1.9588995771456606E+001
       O  2.0930469506385315E+001  5.9742927897684659E+000  1.9161946067701589E+001
       H  1.5239907305074134E+001  2.1232015728119212E+001  1.0921800930053635E+001
       H  1.5977284150405026E+001  2.0457973912116266E+001  9.8899157530462141E+000
       O  1.5965495120657611E+001  2.0546644268297342E+001  1.0858412663766982E+001
       H  2.3934093291409608E+000  7.1264031908431358E-001  4.3145045005346381E+000
       H  3.4298484829776479E+000  2.8366936484423072E-001  3.2140235834179403E+000
       O  2.7521481770253864E+000  9.7400529107104028E-001  3.3605413597881086E+000
       H  1.8629908557446836E+001  2.3689287198034691E+001 -5.6983380840128861E+000
       H  1.9821000663983966E+001  2.2569855122525659E+001 -5.4246159014174404E+000
       O  1.9554585272233385E+001  2.3385013676277719E+001 -5.8761581457909182E+000
       H  3.0675157135935880E+000  3.3074844805484716E+001  1.5576400575934713E+001
       H  3.2897733214327567E+000  3.3299280346847638E+001  1.7156931007502088E+001
       O  3.0206028194723191E+000  3.3772698371504113E+001  1.6333066652379593E+001
       H  1.2909955053830421E+001  2.4035904002852342E+000  1.1439456868997954E+001
       H  1.2792001532105806E+001  3.1953556814869004E+000  1.2747401790997358E+001
       O  1.2764761313182820E+001  2.2406145197710834E+000  1.2384333320681382E+001
       H  1.4571879951787494E+001  1.5239845853501871E+001 -1.5523041079337371E+001
       H  1.4677698741238963E+001  1.4470995978619218E+001 -1.6840141463272190E+001
       O  1.4070820579744021E+001  1.5041247240293803E+001 -1.6334968018748555E+001
       H -9.5276303114736223E+000  1.4410321903651569E+001  7.1731341027658440E+000
       H -8.3394887093994470E+000  1.5222323127789517E+001  7.3753658977099885E+000
       O -8.9439823061867028E+000  1.4811182190852666E+001  7.9440396993003759E+000
       H  9.3951804783723212E+000  3.6396191991269077E+001  1.4004983648330246E+001
       H  8.6864660200431718E+000  3.5592782242292536E+001  1.2970291192065826E+001
       O  9.1830420679243900E+000  3.6461877958143823E+001  1.3084719900290871E+001
       H  5.8913603892067634E+000  5.4011534128684033E+000  1.8051035339839473E+001
       H  5.4500939412325788E+000  5.7994374882553643E+000  1.6531712401292101E+001
       O  5.6577397163187415E+000  6.1901006457103831E+000  1.7411721968228523E+001
       H -2.2819576150654597E+000  1.9005032755384192E+001 -1.9413372695310691E+000
       H -7.4046631946001962E-001  1.9005691388517779E+001 -1.3104522284689253E+000
       O -1.6754227485606403E+000  1.9271684050241728E+001 -1.1813815548820845E+000
       H -5.5110536787164719E+000  1.7205082595573963E+001  2.1274648397896307E+001
       H -7.0060649165840054E+000  1.7079320566028702E+001  2.1413628649353480E+001
       O -6.3085367960975729E+000  1.7535149867803941E+001  2.1718607014969248E+001
       H  1.7674261594035798E+001 -1.8198982965941086E+000  5.8080675396416996E+000
       H  1.7927554848644185E+001 -2.2094356879484591E+000  7.2131948719106447E+000
       O  1.7569439392022392E+001 -2.5720024538808071E+000  6.3736005703720640E+000
       H -3.0777092508670162E+001  1.5779384730043462E+000  2.0529670788756093E+001
       H -3.1472516819294270E+001  2.4024670496722846E+000  2.1513676359219890E+001
       O -3.1197260876819893E+001  2.4126591731934246E+000  2.0555986381215803E+001
       H  9.8390819295220489E+000  8.9970495804078165E+000  1.1548944996613402E+001
       H  1.0127032106437909E+001  9.7167351925253396E+000  1.2942651229175866E+001
       O  9.4811123353391444E+000  9.6628327589618888E+000  1.2178119464895264E+001
       H  1.6715775357507010E+001 -1.6044510102348593E+001  2.2157548919298534E+001
       H  1.6870587938586237E+001 -1.5410484590653816E+001  2.3485338491316195E+001
       O  1.6401477375120400E+001 -1.5283680043722361E+001  2.2591346972552934E+001
       H  1.0641008589420318E+000  1.4654629744298413E+001 -5.0361882696101068E+000
       H  3.3222829448793051E-001  1.6056479617793681E+001 -4.7949846505220481E+000
       O  4.1084303717844251E-001  1.5292157008568129E+001 -5.4302562905868657E+000
       H  1.9038943363460689E+001  8.9827272683975981E+000  1.7513909775801736E+001
       H  1.9708873007661786E+001  7.9145077769567624E+000  1.6544724296707233E+001
       O  1.9078241554416479E+001  8.5952438281414469E+000  1.6632732876731851E+001
       H  3.7797127186978838E+000  9.9374332613639211E+000  2.5387364307172241E+001
       H  2.5208131447731166E+000  9.8224212706069522E+000  2.4201778971796227E+001
       O  2.7477350561063538E+000  9.7334371868511536E+000  2.5244562205608002E+001
       H  3.5824265760157430E+000 -7.8590162478662755E+000 -2.7225163662779162E+000
       H  2.3000679673805604E+000 -7.5055864336851670E+000 -2.1338684948057502E+000
       O  3.1953756439202712E+000 -7.0942807420380518E+000 -2.2553841730399316E+000
       H  4.5013101623681120E+000  8.5867571574305206E+000  1.5463582333324780E+001
       H  4.1488918276374207E+000  9.0108443653717014E+000  1.7002789980690839E+001
       O  3.7875713395552357E+000  8.9426759112377621E+000  1.6052109621995708E+001
       H  6.3816967021042617E+000  2.4580782746736688E+001  3.2857974300365264E+001
       H  5.4718621096902647E+000  2.3316177210995374E+001  3.3008335110244410E+001
       O  5.9010043862496167E+000  2.3957828458970393E+001  3.3555288330465622E+001
       H  9.2520124114588693E+000  3.2847841460969967E+001 -1.9297631203254810E+000
       H  9.1752293945601480E+000  3.4044555380034950E+001 -9.6825082340376822E-001
       O  9.0670555836821070E+000  3.3095577647074975E+001 -1.0181542260293723E+000
       H  4.7450646363270327E-001  9.9034722077098074E+000  1.1571874638270735E+001
       H  1.0769797294980503E+000  1.0694722624337187E+001  1.0436740815936460E+001
       O  3.3134811532157710E-001  1.0696446916771105E+001  1.0981005394099643E+001
       H  1.4032591721100898E+001  1.3628068136084575E+001 -1.9598238057042384E+001
       H  1.5105477466479062E+001  1.3125709279381221E+001 -2.0458453916670525E+001
       O  1.4973996015937754E+001  1.3640142189694036E+001 -1.9663197798946420E+001
       H  1.3800342917657936E+001 -1.4950481396545987E+000  1.5843124225650490E+001
       H  1.3397152310202792E+001 -2.3332627746651333E+000  1.6983148010944952E+001
       O  1.2975161219527433E+001 -1.8160769066120022E+000  1.6307482522999550E+001
       H  1.4895197595112950E+001  1.0022554386908407E+001  2.0372671402426768E+001
       H  1.6419946483903669E+001  9.5226099020194344E+000  2.0465459082828207E+001
       O  1.5414245166854466E+001  9.3549680896375698E+000  2.0857061262434986E+001
       H  2.8563641751419055E+001 -9.8610276405194841E-001  1.9969658421091736E+001
       H  2.8064971846979994E+001 -9.0640220485392675E-001  2.1525676394374965E+001
       O  2.8003523819377758E+001 -1.3406671947024327E+000  2.0704964934311896E+001
       H  1.9719587905684243E+001  1.4693380572198640E+001  2.0543603288570530E+001
       H  1.9522202376653318E+001  1.5579914570002867E+001  1.9356551569333224E+001
       O  1.9862087381568244E+001  1.4703654161897536E+001  1.9595581484273602E+001
       H  1.0684066224357363E+001  6.7829380483528654E+000 -4.1068469870062820E+000
       H  1.1634469372301293E+001  5.6324363246082214E+000 -3.9138709956604938E+000
       O  1.1020233258992958E+001  5.9575357013933861E+000 -4.6329760577141386E+000
       H -1.7671394977681461E+000  1.2772532955837375E+001 -4.6931001791106208E+000
       H -3.0408471813459377E+000  1.3493823292532767E+001 -5.3420453929638230E+000
       O -2.7647678353649621E+000  1.2619107219468948E+001 -4.9715130990333609E+000
       H  7.8196901608721729E+000  7.9486747570455885E+000  1.3937417248552222E+001
       H  6.5593112468424994E+000  8.3690793669864316E+000  1.3173199782926034E+001
       O  6.8921048110928060E+000  7.7471768455072914E+000  1.3858967158031099E+001
       H -1.6322524558245728E+001 -4.0644796184765735E+000  5.3438406883846037E+000
       H -1.7657831467957919E+001 -3.4840902396692774E+000  4.7096501065240952E+000
       O -1.6745799796439659E+001 -3.8047510765395955E+000  4.5656167344871630E+000
       H  2.1723092619006246E-001  7.5750099532162274E+000 -5.0950370522033017E+000
       H -1.1934439505485472E+000  7.5262113552138628E+000 -5.4590803341653924E+000
       O -3.4109749838948789E-001  7.6979088437358367E+000 -5.8867881655414926E+000
       H  1.4172383847530032E+001  7.6647886075438789E+000  7.4242882212595118E+000
       H  1.2747093567930612E+001  8.3044952593091459E+000  7.8819722418752258E+000
       O  1.3687844171920339E+001  8.5201064725955167E+000  7.7051057363850628E+000
       H  3.1329162486680380E+000  1.0775733407059485E+001  3.2761814330783334E+000
       H  2.5677750237656860E+000  9.4802870851230789E+000  2.6571199142056798E+000
       O  2.3848401880178862E+000  1.0174531949435057E+001  3.3856844603152720E+000
       H  1.0477631981694641E+001  1.6962216290115595E+001 -6.5195849666059758E+000
       H  1.0499854797294189E+001  1.5324040519487456E+001 -7.0870763177602427E+000
       O  1.0971972246333451E+001  1.6120568928194306E+001 -6.7096172323332812E+000
       H  1.5322492193580636E+001  1.6777217729142183E+001  1.4076287007487975E+001
       H  1.6576161853653574E+001  1.7133916027189716E+001  1.4865509244255874E+001
       O  1.5662898764592512E+001  1.7470082017719427E+001  1.4739510016126491E+001
       H  5.8801869411064382E+000 -5.4887238514396390E+000 -1.2058547663454320E+001
       H  6.2450577756329846E+000 -5.6851870509836973E+000 -1.0714322254351776E+001
       O  6.0321897087651886E+000 -4.9386582091630222E+000 -1.1283438612478193E+001
       H  5.3968139333616767E+000  1.1056957659987692E+001  5.4338914283969970E+000
       H  5.4789701336992804E+000  1.1667656967323950E+001  4.0642509817867580E+000
       O  5.1949041753544778E+000  1.1859265549303061E+001  4.9734723215652412E+000
       H  1.2521770172694763E+001  6.7106667775229054E+000  9.5624515895391848E+000
       H  1.1584328552300097E+001  6.4956118335988178E+000  1.0807419206300395E+001
       O  1.2256067302086247E+001  7.0576191259189391E+000  1.0409516680630546E+001
       H  1.3672664115004454E+000  1.1946862640826157E+000 -6.9531205846687483E+000
       H  1.2116335263902074E+000  1.4905058797246378E+000 -5.4201870756835051E+000
       O  1.8232336075793565E+000  1.5300721029901270E+000 -6.2182998312964379E+000
       H  3.9666787843174092E+000  1.3905070048374691E+001  7.7454408637009520E+000
       H  2.9257435695575253E+000  1.2986658920423613E+001  8.1317458131683260E+000
       O  3.0401478428128437E+000  1.3968582383534017E+001  7.9673405794342518E+000
       H -6.9125692335611673E+000 -5.1203490040601141E+000  1.6622848410205727E+001
       H -7.0053300099160918E+000 -5.4449933856358701E+000  1.8233214749476872E+001
       O -6.3967455874284056E+000 -5.3216070874354831E+000  1.7455595281874800E+001
       H  1.8193463285568342E+001  2.3594109649196562E+000  1.5515933636438799E+001
       H  1.7716368618301672E+001  1.3518056129819529E+000  1.4422581236578347E+001
       O  1.7756905410853101E+001  2.2706315342135155E+000  1.4666875637179952E+001
       H  1.5505384080608380E+001 -3.3961336350079376E+000  2.8010195454661325E+001
       H  1.5379818987829433E+001 -4.9499446880572755E+000  2.8434894374370604E+001
       O  1.5649325123397137E+001 -4.0777456366363820E+000  2.8803257174803008E+001
       H  1.7499380583571675E+001  9.8462898949152866E-001  1.9871314865507891E+001
       H  1.8513764107161105E+001  2.0371857905079840E+000  2.0328254979276799E+001
       O  1.7841610321651356E+001  1.3150177523947701E+000  2.0753710262559412E+001
       H  9.9603179207617174E+000  2.7574772173478590E+000 -4.0328545718518702E+000
       H  1.0773596701773341E+001  1.5434650700183079E+000 -4.6430700343105080E+000
       O  1.0076137904793264E+001  1.7023615161741070E+000 -4.0293836319241372E+000
       H  1.0379871722059912E+001 -5.8730798058907059E+000 -4.9962321284919282E+000
       H  1.1780468740597414E+001 -5.6293725838963056E+000 -4.6429409285371550E+000
       O  1.0869240037318345E+001 -5.7456729426233792E+000 -4.2057524687360965E+000
       H  3.1806715137624053E+001  1.5938217608982583E+001  1.2599265206744439E+001
       H  3.2825403333086740E+001  1.5354940478531509E+001  1.1580594744674292E+001
       O  3.2486096944683204E+001  1.5215456751440833E+001  1.2504647952792025E+001
       H  1.9488271314317341E+001  8.6587720079958768E+000  9.0009241846427770E+000
       H  1.9849524743206505E+001  8.9593174250685728E+000  7.6045682879969103E+000
       O  1.9078648883127926E+001  8.9803417443054965E+000  8.1761513952699669E+000
       H  8.3601726995162284E+000 -6.7731519870653534E+000  8.9806436556755642E+000
       H  8.9910520687604745E+000 -6.4725350084992295E+000  7.6529687670535544E+000
       O  8.2508761225998040E+000 -7.0083991842325055E+000  8.0032384237198926E+000
       H -5.6840541480103024E+000  6.6543625674306703E+000  4.4040930313980393E+000
       H -4.5753680002234454E+000  7.6928992733898633E+000  4.2274770566755118E+000
       O -5.5119754354765957E+000  7.5431653108457635E+000  4.1411923211320030E+000
       H  1.5041909279467587E+001 -1.3060451317625542E+001 -2.2701787893049583E+000
       H  1.5124609125099658E+001 -1.3515303435841341E+001 -6.8792509592364703E-001