 # Version information for this restart file 
 # current date 2025-03-31 23:27:40.557
 # current working dir /ccc/scratch/cont003/gen2309/sicilana/NPT/128_H2O_4_NaCl_10_wt_673K_1000bar/BATCH_11_MD_T_673_P_1000_steps_1000_dt_0.5_NH2O_128_NaCl_4_abc_17.19_17.19_17.19_wt_9.20
 # Program compiled at                                       2024-10-31 15:04:21
 # Program compiled on                                                 topaze131
 # Program compiled for                                                   x86_64
 # Source code revision number                                                  
 &GLOBAL
   PRINT_LEVEL LOW
   PROJECT_NAME "brines"
   RUN_TYPE MD
   FLUSH_SHOULD_FLUSH T
 &END GLOBAL
 &MOTION
   &MD
     ENSEMBLE NPT_I
     STEPS 1000
     TIMESTEP  4.9999999999999994E-001
     STEP_START_VAL 26900
     TIME_START_VAL  1.3450000000006190E+004
     ECONS_START_VAL -2.4590398713531335E+003
     TEMPERATURE  6.7300000000000011E+002
     &BAROSTAT
       PRESSURE  1.0000000000000000E+003
       TIMECON  9.9999999999999989E+002
       &VELOCITY
          -5.3355614208468411E-006
       &END VELOCITY
       &MASS
           4.2836593343398705E+007
       &END MASS
       &THERMOSTAT
         TYPE CSVR
         &CSVR
           TIMECON  9.6755373060191388E+001
           &THERMOSTAT_ENERGY
               1.9664961721010382E-003
           &END THERMOSTAT_ENERGY
           &RNG_INIT
 Wiener process for Thermostat # 1        1 F T F   4.9807617896462325E-01        2936374921.0        1244989312.0        2277212279.0         554339701.0        3266038530.0        2495352748.0             12345.0             12345.0             12345.0             12345.0             12345.0             12345.0             12345.0             12345.0             12345.0             12345.0             12345.0             12345.0
           &END RNG_INIT
         &END CSVR
       &END THERMOSTAT
     &END BAROSTAT
     &THERMOSTAT
       TYPE CSVR
       &CSVR
         TIMECON  9.9999999999999989E+002
         &THERMOSTAT_ENERGY
            -8.2498670992666856E-001
         &END THERMOSTAT_ENERGY
         &RNG_INIT
 Wiener process for Thermostat # 1        1 F T F  -2.3339654088175998E+00         874903239.0        2665825995.0        2262738848.0        2909865170.0         973120738.0        1441047621.0             12345.0             12345.0             12345.0             12345.0             12345.0             12345.0             12345.0             12345.0             12345.0             12345.0             12345.0             12345.0
         &END RNG_INIT
       &END CSVR
     &END THERMOSTAT
     &AVERAGES T
       &RESTART_AVERAGES
         ITIMES_START 1
         AVECPU  2.3303284422137018E+001
         AVEHUGONIOT  0.0000000000000000E+000
         AVETEMP_BARO  3.0734242222013887E+002
         AVEPOT -2.4597241939997289E+003
         AVEKIN  1.2211231830575047E+000
         AVETEMP  6.5745906764894585E+002
         AVEKIN_QM  0.0000000000000000E+000
         AVETEMP_QM  0.0000000000000000E+000
         AVEVOL  3.8737719003962877E+004
         AVECELL_A  3.3759463829192413E+001
         AVECELL_B  3.3759463829192413E+001
         AVECELL_C  3.3759463829192413E+001
         AVEALPHA  9.0000000000000000E+001
         AVEBETA  9.0000000000000000E+001
         AVEGAMMA  9.0000000000000000E+001
         AVE_ECONS -1.3619361003972838E+002
         AVE_PRESS  4.0210142484583605E+002
         AVE_PXX  3.7787364908801408E+002
       &END RESTART_AVERAGES
     &END AVERAGES
   &END MD
   &PRINT
     &TRAJECTORY SILENT
       FILENAME =brines-1.xyz
       &EACH
         MD 1
       &END EACH
     &END TRAJECTORY
     &CELL SILENT
       FILENAME =brines-1.cell_xyz
       &EACH
         MD 1
       &END EACH
     &END CELL
     &VELOCITIES SILENT
       FILENAME =brines-1.vel
       &EACH
         MD 1
       &END EACH
     &END VELOCITIES
     &FORCES SILENT
       FILENAME =brines-1.force
       &EACH
         MD 1
       &END EACH
     &END FORCES
     &STRESS SILENT
       FILENAME =brines-1.stress
       &EACH
         MD 1
       &END EACH
     &END STRESS
     &RESTART SILENT
       FILENAME =brines-1.restart
       &EACH
         MD 1
       &END EACH
     &END RESTART
     &RESTART_HISTORY SILENT
       &EACH
         MD 50
       &END EACH
     &END RESTART_HISTORY
   &END PRINT
 &END MOTION
 &FORCE_EVAL
   METHOD QS
   STRESS_TENSOR ANALYTICAL
   &DFT
     BASIS_SET_FILE_NAME /ccc/work/cont003/gen2309/sicilana/DATA_CP2K/GTH_BASIS_SETS
     POTENTIAL_FILE_NAME /ccc/work/cont003/gen2309/sicilana/DATA_CP2K/GTH_POTENTIALS
     &SCF
       MAX_SCF 50
       EPS_SCF  9.9999999999999995E-008
       &OT T
         MINIMIZER DIIS
         PRECONDITIONER FULL_SINGLE_INVERSE
       &END OT
       &OUTER_SCF T
         EPS_SCF  9.9999999999999995E-008
         MAX_SCF 50
       &END OUTER_SCF
     &END SCF
     &QS
       EPS_DEFAULT  1.0000000000000000E-014
       EPSFIT  9.9999999999999995E-007
       EPSISO  9.9999999999999998E-013
       EPSRHO0  1.0000000000000000E-008
       QUADRATURE GC_LOG
       EXTRAPOLATION ASPC
       METHOD GAPW
     &END QS
     &MGRID
       NGRIDS 4
       CUTOFF  6.0000000000000000E+002
       REL_CUTOFF  6.0000000000000000E+001
     &END MGRID
     &XC
       DENSITY_CUTOFF  1.0000000000000000E-010
       GRADIENT_CUTOFF  1.0000000000000000E-010
       TAU_CUTOFF  1.0000000000000000E-010
       &XC_FUNCTIONAL NO_SHORTCUT
         &PBE T
           PARAMETRIZATION REVPBE
         &END PBE
       &END XC_FUNCTIONAL
       &VDW_POTENTIAL
         POTENTIAL_TYPE PAIR_POTENTIAL
         &PAIR_POTENTIAL
           R_CUTOFF  1.2000000000000000E+001
           TYPE DFTD3
           PARAMETER_FILE_NAME /ccc/work/cont003/gen2309/sicilana/DATA_CP2K/dftd3.dat
           REFERENCE_FUNCTIONAL "PBE"
           CALCULATE_C9_TERM T
           REFERENCE_C9_TERM T
           VERBOSE_OUTPUT T
           D3_EXCLUDE_KIND 3
         &END PAIR_POTENTIAL
       &END VDW_POTENTIAL
     &END XC
     &REAL_TIME_PROPAGATION
       INITIAL_WFN RT_RESTART
     &END REAL_TIME_PROPAGATION
     &PRINT
       &MO_CUBES SILENT
         WRITE_CUBE F
         NLUMO 10
         NHOMO 2
         &EACH
           MD 200
         &END EACH
       &END MO_CUBES
       &MOMENTS ON
         ADD_LAST NUMERIC
         COMMON_ITERATION_LEVELS 20000
         FILENAME =brines-1.dipoles
         REFERENCE COM
         &EACH
           MD 1
         &END EACH
       &END MOMENTS
     &END PRINT
   &END DFT
   &SUBSYS
     &CELL
       A  1.8999109662417684E+001  0.0000000000000000E+000  0.0000000000000000E+000
       B  0.0000000000000000E+000  1.8999109662417684E+001  0.0000000000000000E+000
       C  0.0000000000000000E+000  0.0000000000000000E+000  1.8999109662417684E+001
       MULTIPLE_UNIT_CELL 1 1 1
     &END CELL
     &COORD
       H  1.2460298754805665E+001  2.1777075658537640E+001  3.7052712004104724E+000
       H  1.3742112013774154E+001  2.1039783707718325E+001  3.4686945168288621E+000
       O  1.3436291116010439E+001  2.1977862329272021E+001  3.5069993738946805E+000
       H  7.5237475655058388E+000 -8.8114180349461684E+000  2.3007957271744499E+000
       H  6.2761000293686964E+000 -9.2547037348852896E+000  3.2008194987467791E+000
       O  6.6141449732584379E+000 -8.5212643143927842E+000  2.6992188599875284E+000
       H -9.1625038375870282E+000  4.7739756805607996E+001  4.7710096644105995E+001
       H -9.4566755962501095E+000  4.6318510542829706E+001  4.7541382993774057E+001
       O -9.6043176177104144E+000  4.7036177234144247E+001  4.8226323727996082E+001
       H  9.0752745421994945E+000  2.5343791194058138E+001  2.3610896499628666E+001
       H  8.7338760317290856E+000  2.3837468418775234E+001  2.3720849159260425E+001
       O  8.9413799487342107E+000  2.4607733296892622E+001  2.4214815716478995E+001
       H -1.5291401172159777E+001  4.9494974419456428E+000  1.0421844662786210E+001
       H -1.4521186846679967E+001  6.2744900086853530E+000  1.1035461965768539E+001
       O -1.4582442008302120E+001  5.2597429241238967E+000  1.0989661820705335E+001
       H  3.4568721681719325E+001  2.6883011340454157E+001 -6.2236120768649217E+000
       H  3.3583152794715410E+001  2.7741025037032539E+001 -7.0000385380750743E+000
       O  3.4514598873178521E+001  2.7583547544993309E+001 -6.8833402641077495E+000
       H -6.8090673966310007E+000  3.4032065734728496E+000  9.3980715707135474E+000
       H -5.8431055207342792E+000  4.4757864165458354E+000  9.9180288352502632E+000
       O -5.8551630431819834E+000  3.4664013983638271E+000  9.8295912672764718E+000
       H  2.5677593843987346E+001 -1.9663072736902820E+000 -5.5123684592736382E+000
       H  2.6460952309832177E+001 -7.2776460359995798E-001 -5.5505893137259248E+000
       O  2.5626060430522898E+001 -1.0748480061613899E+000 -5.1652847663611512E+000
       H  2.0051913005127997E+001  1.2552452312873674E+001  1.4646765899902922E+001
       H  2.1620404297779462E+001  1.2423577831385936E+001  1.4207061405645719E+001
       O  2.0833734424367901E+001  1.3019717671050701E+001  1.4270615442878583E+001
       H  2.3979346218641211E+001  3.9521028831334980E-002  2.4931891731437478E+001
       H  2.5010447279922797E+001  1.7530105796324416E-001  2.3893908924764624E+001
       O  2.4893916729222124E+001 -1.8726831644894829E-001  2.4821393877068655E+001
       H  3.8817053636877921E+000  1.2983494406605307E+000 -1.1709414783698463E+001
       H  2.6754274845981167E+000  8.5429315711395648E-001 -1.2399166554101297E+001
       O  3.5919662961538630E+000  8.2143828809600439E-001 -1.2447152998547409E+001
       H  1.3225915806133182E+001  5.6211697793932967E+000  2.6351126988208261E+001
       H  1.2707715740497191E+001  4.5016269582474093E+000  2.5489013055735473E+001
       O  1.2399830419985427E+001  5.3205264914527435E+000  2.5899391791370153E+001
       H  1.8013290136077874E+001  1.3645489027210042E+001  3.2582728908691427E+000
       H  1.7765114453242226E+001  1.4314779177853623E+001  4.7390174504440079E+000
       O  1.7819310855637877E+001  1.3456848505307564E+001  4.2574745770981917E+000
       H  8.1166549683057685E+000 -1.0847900497722579E+001 -1.8873844555918950E+000
       H  7.1711782155986228E+000 -9.5996364307472835E+000 -1.4010950304046008E+000
       O  8.0002726399968491E+000 -1.0079640485483184E+001 -1.2883524343614177E+000
       H  3.1519252220129733E+001  3.7832100471589172E+001 -1.2914764987219647E+000
       H  2.9930104756599100E+001  3.8372304239466722E+001 -1.0394203847513661E+000
       O  3.0757039269261554E+001  3.7873494299909616E+001 -6.6248015552001305E-001
       H  1.5727856621798963E+001  2.4301442433920553E+000 -1.1007632455244345E+001
       H  1.4603269904464849E+001  1.7964424381268640E+000 -1.1708648914441364E+001
       O  1.5462196642790747E+001  1.5082677702464484E+000 -1.1452287132058435E+001
       H  1.9128423884667427E+001  9.4243191595466491E-001  5.7624503256360011E+000
       H  1.9855208806849877E+001 -8.3752217945688795E-002  6.6776849681414632E+000
       O  1.9885156193978506E+001  3.7453133725705479E-001  5.8040823464946127E+000
       H  7.2316524414969390E+000  1.0355452062530714E+000  1.6488559938875948E+001
       H  8.2389319853532310E+000  2.1164904151666328E+000  1.6409442670175405E+001
       O  8.1270613920578274E+000  1.1580139764615820E+000  1.6244095579873797E+001
       H  5.9968864414154552E+000  1.6993708993789983E+001  7.0169313335937629E+000
       H  5.7763039970674495E+000  1.5584466866543552E+001  7.8008485179127014E+000
       O  5.8383103715243454E+000  1.6579449297544311E+001  7.9453085779906480E+000
       H  1.9378017647464883E+001  2.6451852999798639E+001  5.9856750603831210E-001
       H  1.8049038201677089E+001  2.6114098377614059E+001  1.6770492748300689E+000
       O  1.8526232814719538E+001  2.6746239812148264E+001  1.0470023473394470E+000
       H  1.5490604589461803E+001  1.2380532614313942E+001  2.0179418734017709E+001
       H  1.5085818614988467E+001  1.3823763750811498E+001  1.9959527018069089E+001
       O  1.5391513415452867E+001  1.3002441124636393E+001  1.9484109752423404E+001
       H  1.1161110040225099E+001 -1.0870759235994745E+001  1.6464642166659960E+001
       H  9.9218138400427787E+000 -1.0293363185991071E+001  1.5562013672761763E+001
       O  1.0720388674284203E+001 -1.0847895975252884E+001  1.5628326317979319E+001
       H  2.5154088333468330E+001  1.5284755489746999E+001  2.1623072665631472E+001
       H  2.5667226609946614E+001  1.5529571266851903E+001  2.3015596601323352E+001
       O  2.5448971138802655E+001  1.5968917704974395E+001  2.2140708152434460E+001
       H -1.6829506134073473E+001  5.6860634449095340E+000  1.4280217467860966E+001
       H -1.5639642038947045E+001  6.2956527012513916E+000  1.5074504023429338E+001
       O -1.6590414449791005E+001  6.1894502072547262E+000  1.5125924899369286E+001
       H -6.4314705911107994E-001  5.1062167905075881E+000  5.4640770670658538E+000
       H  3.2915234386780862E-001  6.0275993331607065E+000  6.1952890033121539E+000
       O -2.1956388868208471E-001  5.9890972839370518E+000  5.3360897587332232E+000
       H -6.3329862980409111E+000 -1.6848118839099918E+001  1.8729428996505952E+001
       H -5.1518146330380228E+000 -1.6259470814423111E+001  1.8093225249568871E+001
       O -6.0970147791007028E+000 -1.6076225335012804E+001  1.8144133852276372E+001
       H  2.7880369062279801E+001  9.5419286197920421E+000  5.4029726464116845E-001
       H  2.9097470830582093E+001  9.6505357542840677E+000  1.5339857360266094E+000
       O  2.8206029135978383E+001  1.0024870928850291E+001  1.2670331554171905E+000
       H  1.1967962886882646E+001 -1.9829560554314687E+000  2.6820282770203054E+001
       H  1.1167031352118290E+001 -6.3523174412742878E-001  2.6163378954237022E+001
       O  1.1083990271796317E+001 -1.5594517963840371E+000  2.6501008528140929E+001
       H -2.1704474169473515E+000  6.6295934845966045E+000 -4.2767421910701566E+000
       H -3.7490932326438764E+000  6.8655813923267210E+000 -3.8298566753035530E+000
       O -3.0631682841122632E+000  7.0566738682533394E+000 -4.5457052548447523E+000
       H  4.6863676757792767E+000  5.7905747464132062E+000  3.0394488929715293E+000
       H  6.1725412394980035E+000  6.3207940501968327E+000  3.0070969138432857E+000
       O  5.5913218688243136E+000  5.6541478226108790E+000  2.6128621118380964E+000
       H  1.5820312892057486E-001 -1.0548795597962730E+000  4.0226857116307402E+000
       H  4.7413836408728260E-001 -2.2947644049872822E+000  3.0108936806930928E+000
       O -1.5563866608863541E-001 -1.8531107130502718E+000  3.5619212283475168E+000
       H -9.1361434945590125E-001  2.4382259013297318E+001 -5.7117004022641886E+000
       H -1.2886841625510428E+000  2.3389976233181404E+001 -4.4771496138167022E+000
       O -7.4931333011286838E-001  2.4196960244481399E+001 -4.7473043882198231E+000
       H  2.3157680988748808E+001  2.3204927652046848E+001  1.2352194412937873E+001
       H  2.3458488561483716E+001  2.2660560636559595E+001  1.3702231072216803E+001
       O  2.3134376875274256E+001  2.2389393119579609E+001  1.2906342764733052E+001
       H  2.4363760254138738E+000 -2.2411953835025177E+001 -7.7191784058967841E+000
       H  3.5992671581703983E+000 -2.1726336206725605E+001 -7.0862446924493749E+000
       O  3.2076573985963157E+000 -2.1904929252851250E+001 -7.9114127653604074E+000
       H  7.5348377891074438E+000  2.5894227214180741E+000  1.4653386727304193E+001
       H  6.7627365766567706E+000  2.0669191002270382E+000  1.3427256908389648E+001
       O  6.7888522003861249E+000  2.8269428721076264E+000  1.4071096673872393E+001
       H  1.5419582149117677E+001  1.9086059144249532E+001 -1.7643544218670829E+001
       H  1.5562338687377324E+001  2.0028069535846758E+001 -1.6360073367472133E+001
       O  1.4983218589065633E+001  1.9372282803057423E+001 -1.6787703574758211E+001
       H  1.4348544978338529E+001 -1.0265647168843403E+001 -2.2203793895169927E+001
       H  1.4130309137647068E+001 -9.9152118139410170E+000 -2.0840263974063692E+001
       O  1.4813613121787037E+001 -1.0373478362715115E+001 -2.1293911041749052E+001
       H  1.4773153941701295E+001 -1.2462647740078436E+000  2.7560780533836187E+001
       H  1.4727658297209846E+001 -3.9411869121325271E-002  2.8418309210573558E+001
       O  1.4226541457044148E+001 -8.8725887189399799E-001  2.8219083390491431E+001
       H  2.1354308736094989E+001  5.9144764145356836E+000  2.0007833486973102E+001
       H  2.1087497934600844E+001  5.5631950017460650E+000  2.1457925865069051E+001
       O  2.1406201484243621E+001  6.2365349973948954E+000  2.0923134230475018E+001
       H  1.7354386258092948E+001  2.0301266203904802E+001  1.1072255104912314E+001
       H  1.7189003324583783E+001  1.9057182870205818E+001  1.0098360219688065E+001
       O  1.7225133720334949E+001  1.9325167122248398E+001  1.1042941203010766E+001
       H  2.5975642276332902E+000  5.7125165518584131E-001  1.9520896054777956E+000
       H  2.7328830136249644E+000  1.4928549288424320E+000  3.2270188300691092E+000
       O  3.2815070321208055E+000  9.3265669093809400E-001  2.5567913000177080E+000
       H  2.1269797736606392E+001  2.2381789785625912E+001 -5.7161306433018799E+000
       H  1.9874807944447962E+001  2.2987004990285012E+001 -5.5300449167848527E+000
       O  2.0709256319266181E+001  2.3097348632452878E+001 -6.1313439694066414E+000
       H  3.0123879389975206E+000  3.3335898007679759E+001  1.5368196428375299E+001
       H  3.7952576185237201E+000  3.4237131458841851E+001  1.6278977648674591E+001
       O  3.0780764525085185E+000  3.4276398360980963E+001  1.5645669450117188E+001
       H  1.3685872532802275E+001  2.1929367785237108E+000  1.2616736174209491E+001
       H  1.4553054038467623E+001  1.8414060265977490E+000  1.3796214476595367E+001
       O  1.4125536789260650E+001  2.6418827684015964E+000  1.3448832440055220E+001
       H  1.5390866680580485E+001  1.6274188675096241E+001 -1.7296936687316453E+001
       H  1.3979497707358771E+001  1.6048436700595929E+001 -1.6887694493567473E+001
       O  1.4800143518284859E+001  1.5541994665236482E+001 -1.7078610063081161E+001
       H -8.8544618303940812E+000  1.4918701180964806E+001  7.0788428100400322E+000
       H -9.4545956441033212E+000  1.6097563890924452E+001  8.0213666220205155E+000
       O -9.4112787451579862E+000  1.5124920744163784E+001  7.8825035013485714E+000
       H  9.6269820958190842E+000  3.8055948413580964E+001  1.2389316867756358E+001
       H  9.5751991717674283E+000  3.9061055984426531E+001  1.3526990202001210E+001
       O  8.9989430840973288E+000  3.8602436009054699E+001  1.2901962437737165E+001
       H  4.8662525235574599E+000  6.0798204398005904E+000  1.9564093725328433E+001
       H  4.0766017777049948E+000  6.1221813678836803E+000  1.8167990247713753E+001
       O  4.8721271828075343E+000  6.4895641399947550E+000  1.8671543034586453E+001
       H -3.0400764553022990E+000  1.8296128722007033E+001 -1.0795605840519844E+000
       H -3.0338158813228571E+000  1.9681889568495933E+001 -1.5321289008469019E+000
       O -2.8437184062678194E+000  1.9191047456419160E+001 -6.9745618426597233E-001
       H -6.9106153704356030E+000  1.7711201623016475E+001  2.1035355759762410E+001
       H -7.3719099823092513E+000  1.6437675131455293E+001  2.1392515303992624E+001
       O -6.5485289354596921E+000  1.6944298292844202E+001  2.1333658353986831E+001
       H  1.7275931601111967E+001 -1.7485390301426529E+000  5.5154696646308379E+000
       H  1.7247446801637633E+001 -2.0532710964851799E+000  7.0369480193892020E+000
       O  1.7010138533583937E+001 -2.4661562364579330E+000  6.1922589960865686E+000
       H -3.1550039542093646E+001  1.8315934871466402E+000  2.1683763142240981E+001
       H -3.0821752607414787E+001  4.5183246227256169E-001  2.1142094244315398E+001
       O -3.0744548683087942E+001  1.2325395617724135E+000  2.1743243471193853E+001
       H  9.9384717775323814E+000  8.2432941294041200E+000  1.1909103225933427E+001
       H  1.0713746596899293E+001  7.7432521205060771E+000  1.3040732651001953E+001
       O  9.7562807566621768E+000  7.8229623874723391E+000  1.2820979538702909E+001
       H  1.6344465789683934E+001 -1.4763192110752485E+001  2.3571766331333926E+001
       H  1.5136215237570275E+001 -1.5096698934933290E+001  2.2637178590433177E+001
       O  1.6081719402506444E+001 -1.5199800788446346E+001  2.2725659209468819E+001
       H  1.0398179038960289E+000  1.3514717607673951E+001 -6.2759332706910147E+000
       H  6.2678297753714241E-001  1.4948135445771873E+001 -6.6362403479452530E+000
       O  6.7269675649432592E-001  1.4051523567072467E+001 -7.0242267501105253E+000
       H  1.9773283294565424E+001  8.1373538891802966E+000  1.7402940110789181E+001
       H  2.0244787383006454E+001  6.9881428787388424E+000  1.6729662281910052E+001
       O  1.9649611011995091E+001  7.1834183323082588E+000  1.7430279301795700E+001
       H  2.9329591833348174E+000  1.0393156679792204E+001  2.6685696870279696E+001
       H  2.7752935606271278E+000  8.9109289467246207E+000  2.6079251051372349E+001
       O  2.3108667710781923E+000  9.8319176108206641E+000  2.6006499363363186E+001
       H  4.0235759378882650E+000 -7.9030351911149088E+000 -1.0637011693952243E+000
       H  2.4371223383398961E+000 -7.8330623825382055E+000 -1.1846916794130531E+000
       O  3.2602797687725649E+000 -7.4612708424535024E+000 -1.5069492652765071E+000
       H  3.9429091639881317E+000  8.7837582874089435E+000  1.6046544518034590E+001
       H  3.7851238461791015E+000  1.0354967177487227E+001  1.6200162828476483E+001
       O  4.4252506142294390E+000  9.6394757147108372E+000  1.5952452616419031E+001
       H  6.4022491537640844E+000  2.5724341169750517E+001  3.3497237052081807E+001
       H  6.5586044053173600E+000  2.4148085761825040E+001  3.3912863300367775E+001
       O  5.9346425968696801E+000  2.4868377787817828E+001  3.3540079707701935E+001
       H  8.3089421606869216E+000  3.4631921859139347E+001 -8.8733288311085168E-001
       H  9.1794917853877234E+000  3.4640812719105590E+001  3.4662559743734589E-001
       O  8.7508860878024937E+000  3.5263566292922434E+001 -3.0842359542109365E-001
       H  2.0746241549445901E-001  1.0223526976770291E+001  1.1606731716248614E+001
       H  1.2188767565661696E+000  1.0996800221918253E+001  1.0715835850408272E+001
       O  2.7184690121308480E-001  1.0831596745734956E+001  1.0925189648836923E+001
       H  1.5434296213215156E+001  1.4093412741078874E+001 -2.0104626943834244E+001
       H  1.5489758514879737E+001  1.5517317803646419E+001 -2.0873252074254307E+001
       O  1.4946607268780825E+001  1.4694304765623484E+001 -2.0752875455198147E+001
       H  1.2508236447939968E+001 -2.5181741251004444E+000  1.6365196495019077E+001
       H  1.3805065520586302E+001 -2.6831089371805583E+000  1.7111583958657867E+001
       O  1.3405519901222489E+001 -2.1246222601456397E+000  1.6505931194569957E+001
       H  1.6637149136473813E+001  1.0897216056766771E+001  1.9824424301718469E+001
       H  1.6776847368696622E+001  9.2924631458221718E+000  1.9965455493483034E+001
       O  1.6317878697747268E+001  1.0095394894745111E+001  2.0368914313128837E+001
       H  2.8699924942651290E+001 -5.8439460281498345E-001  2.0142951311707581E+001
       H  2.7420194861059784E+001 -1.4434562219431775E+000  2.0499984322408892E+001
       O  2.8039364028051335E+001 -7.8415340573444381E-001  2.0836638892110457E+001
       H  2.0555860054534556E+001  1.4729698825353552E+001  2.2457716880194848E+001
       H  2.1628560505667366E+001  1.5354697579851168E+001  2.1489107314726404E+001
       O  2.0656524424814140E+001  1.5160769522565955E+001  2.1587164264738764E+001
       H  1.1599267022842554E+001  5.0843499575567117E+000 -5.7822917530106892E+000
       H  1.3122334228190839E+001  5.1931303132580204E+000 -5.4181446187642353E+000
       O  1.2256568253163167E+001  5.6961757586803756E+000 -5.5119468252546424E+000
       H -2.8290945277685671E+000  1.3489332657248058E+001 -4.5224225697398905E+000
       H -4.0444611679468290E+000  1.4378950128522945E+001 -4.1633058836870784E+000
       O -3.5083451966343162E+000  1.3980919320614062E+001 -4.9667912111157912E+000
       H  8.3631443682017022E+000  8.5492694814998149E+000  1.3806710252356426E+001
       H  7.6872684517637762E+000  9.5080650410068905E+000  1.4760935487564437E+001
       O  7.7647503398404440E+000  8.5602257968349793E+000  1.4616857909096845E+001
       H -1.7971428908338776E+001 -4.5379028799336298E+000  5.6823327892821158E+000
       H -1.7785473724971130E+001 -3.1226570878388151E+000  5.3961100243551474E+000
       O -1.7267522608810037E+001 -3.9822443594691186E+000  5.2264226418305739E+000
       H  8.2799781639496708E-002  9.0901001208331991E+000 -4.3284327604196369E+000
       H -1.4472465786854678E+000  9.1386569452440760E+000 -4.9272153224365809E+000
       O -5.6347476868507884E-001  9.5860923101630782E+000 -4.9352638164381037E+000
       H  1.2685830955436247E+001  8.6927293530224379E+000  8.7091100723548820E+000
       H  1.2772025647122637E+001  8.6099269840991024E+000  7.2642481379962254E+000
       O  1.3351800741731157E+001  8.7935799213342332E+000  8.0189578752049613E+000
       H  2.6796992998968197E+000  1.1174192070069360E+001  3.8564065439567639E+000
       H  1.9413027638751885E+000  1.1798184455220499E+001  4.8912436915850686E+000
       O  2.2948149066654309E+000  1.2088262145250251E+001  3.9999414467514067E+000
       H  1.1204411108724809E+001  1.7544883970805706E+001 -9.0441150252168168E+000
       H  1.1042833793706043E+001  1.6174384280416721E+001 -8.6038379479287759E+000
       O  1.1130511373198962E+001  1.7077912717342173E+001 -8.1521658367145093E+000
       H  1.7231373599143371E+001  1.7086162101696310E+001  1.5443643164703753E+001
       H  1.7531887254484154E+001  1.6560334549288090E+001  1.6899710260337830E+001
       O  1.6831308451456991E+001  1.6757296563845113E+001  1.6276013142461085E+001
       H  5.5952469905005993E+000 -5.6174316038895462E+000 -1.3038787280487609E+001
       H  4.7182737176063965E+000 -6.0566939654256915E+000 -1.1836851812047982E+001
       O  5.1494148303127494E+000 -5.3102835858284845E+000 -1.2263670159210159E+001
       H  4.3014129472602987E+000  1.2441027842396975E+001  3.9874318536197371E+000
       H  5.7709875064705471E+000  1.2089097904800949E+001  3.5133171190324597E+000
       O  5.1597654464085245E+000  1.2807870291292998E+001  3.7133388538633731E+000
       H  1.1805823749615879E+001  7.1537785857431189E+000  1.1352937146618727E+001
       H  1.2964749881144485E+001  7.2829588705907087E+000  1.2027767377732316E+001
       O  1.2472575398186912E+001  7.7923380853206465E+000  1.1367196583797153E+001
       H  3.2220576286148273E+000  1.3865859472508448E+000 -7.4987767159245449E+000
       H  1.9045743449488328E+000  6.5332744655876196E-001 -7.0720159294380140E+000
       O  2.6769160713189111E+000  5.5380749042616673E-001 -7.6008797047940346E+000
       H  3.1737007198793319E+000  1.4610765652505478E+001  7.8373501007060860E+000
       H  2.2578088096026940E+000  1.4762429522685007E+001  9.1380324644060025E+000
       O  2.5971477129078142E+000  1.5223342251434248E+001  8.3120977649811625E+000
       H -7.5530205747130292E+000 -4.6249961833798183E+000  1.7164466002500035E+001
       H -7.4901510055761644E+000 -3.4677021834661721E+000  1.8258391065147752E+001
       O -7.7424123254541524E+000 -4.4136863468121916E+000  1.8136430397954612E+001
       H  1.7700032651995375E+001  1.6664383862694667E+000  1.4710288016936513E+001
       H  1.8085867314531757E+001  2.3313558415006743E+000  1.5959650682804311E+001
       O  1.7304283262764457E+001  2.2007641650689616E+000  1.5394365509888297E+001
       H  1.4678785312279171E+001 -3.7455695097334512E+000  2.9995746737360747E+001
       H  1.4930979460819188E+001 -4.2336935777610947E+000  2.8482440711956155E+001
       O  1.5072769787123560E+001 -4.4501124551920661E+000  2.9389188998530976E+001
       H  1.7950099906586360E+001  6.0676329468725265E-001  2.2019948339116340E+001
       H  1.9016438935857312E+001  1.6913567547391621E+000  2.1586380115205070E+001
       O  1.8252014111323852E+001  1.2218442242829564E+000  2.1402862726336675E+001
       H  1.1697974134407643E+001  2.8008027679435195E+000 -3.1397683758338113E+000
       H  1.2321260999188565E+001  2.3807849345332666E+000 -4.4567342181975800E+000
       O  1.1651945198302426E+001  2.1939192593518255E+000 -3.8441279296759348E+000
       H  9.7678113844174970E+000 -5.8706958150963517E+000 -3.8485030579198303E+000
       H  1.1090424929304632E+001 -5.7356261911027859E+000 -4.5707659279585835E+000
       O  1.0704832975806474E+001 -6.0067573459907537E+000 -3.8019036647252169E+000
       H  3.2267896067244486E+001  1.7179558952979271E+001  1.3053968353960556E+001
       H  3.2885301550006226E+001  1.5808169027304761E+001  1.2633661581440004E+001
       O  3.2688848180936567E+001  1.6363341267415024E+001  1.3411509943108451E+001
       H  2.0777065240946047E+001  7.6776389821866751E+000  9.2594473172804257E+000
       H  1.9690901330254405E+001  7.6190981621273410E+000  8.2477573960964001E+000
       O  2.0439891533914338E+001  7.1104784494109481E+000  8.5994421313881002E+000
       H  8.3450983784910466E+000 -6.4968608901565785E+000  7.5289708697918369E+000
       H  7.7092113455356266E+000 -6.9897357223325471E+000  8.7893626763892261E+000
       O  8.3861196408665251E+000 -7.2564942286818361E+000  8.0989274267323008E+000
       H -5.1008681695794893E+000  9.4645533881822708E+000  3.5786765338717563E+000
       H -5.5139882866831424E+000  8.2555036870847491E+000  2.8123590348010707E+000
       O -5.6316188200539035E+000  8.6580695826353082E+000  3.6869866554279347E+000
       H  1.7288306238963891E+001 -1.2121025458931950E+001 -4.2789987663754742E-001
       H  1.5956927297804894E+001 -1.1989830483159254E+001 -5.2763695803814514E-001