 # Version information for this restart file 
 # current date 2025-03-31 18:42:33.958
 # current working dir /ccc/scratch/cont003/gen2309/sicilana/NPT/128_H2O_4_NaCl_10_wt_673K_1000bar/BATCH_11_MD_T_673_P_1000_steps_1000_dt_0.5_NH2O_128_NaCl_4_abc_17.19_17.19_17.19_wt_9.20
 # Program compiled at                                       2024-10-31 15:04:21
 # Program compiled on                                                 topaze131
 # Program compiled for                                                   x86_64
 # Source code revision number                                                  
 &GLOBAL
   PRINT_LEVEL LOW
   PROJECT_NAME "brines"
   RUN_TYPE MD
   FLUSH_SHOULD_FLUSH T
 &END GLOBAL
 &MOTION
   &MD
     ENSEMBLE NPT_I
     STEPS 1000
     TIMESTEP  4.9999999999999994E-001
     STEP_START_VAL 26400
     TIME_START_VAL  1.3200000000006574E+004
     ECONS_START_VAL -2.4590398713531335E+003
     TEMPERATURE  6.7300000000000011E+002
     &BAROSTAT
       PRESSURE  1.0000000000000000E+003
       TIMECON  9.9999999999999989E+002
       &VELOCITY
          -1.0263446498382458E-005
       &END VELOCITY
       &MASS
           4.2836593343398705E+007
       &END MASS
       &THERMOSTAT
         TYPE CSVR
         &CSVR
           TIMECON  9.6755373060191388E+001
           &THERMOSTAT_ENERGY
               1.0625785124617367E-003
           &END THERMOSTAT_ENERGY
           &RNG_INIT
 Wiener process for Thermostat # 1        1 F T F   1.4770511166751417E+00         948603102.0        4028627682.0        3168677115.0        2984752953.0         984421191.0         901975616.0             12345.0             12345.0             12345.0             12345.0             12345.0             12345.0             12345.0             12345.0             12345.0             12345.0             12345.0             12345.0
           &END RNG_INIT
         &END CSVR
       &END THERMOSTAT
     &END BAROSTAT
     &THERMOSTAT
       TYPE CSVR
       &CSVR
         TIMECON  9.9999999999999989E+002
         &THERMOSTAT_ENERGY
            -7.9042734286066074E-001
         &END THERMOSTAT_ENERGY
         &RNG_INIT
 Wiener process for Thermostat # 1        1 F T F  -8.0155390445289287E-01         169202937.0         546981744.0        2677533090.0         606562240.0        3966347371.0        1927209056.0             12345.0             12345.0             12345.0             12345.0             12345.0             12345.0             12345.0             12345.0             12345.0             12345.0             12345.0             12345.0
         &END RNG_INIT
       &END CSVR
     &END THERMOSTAT
     &AVERAGES T
       &RESTART_AVERAGES
         ITIMES_START 1
         AVECPU  2.3096656366725906E+001
         AVEHUGONIOT  0.0000000000000000E+000
         AVETEMP_BARO  3.0680852780097541E+002
         AVEPOT -2.4597185521673200E+003
         AVEKIN  1.2220317192553289E+000
         AVETEMP  6.5794822825930169E+002
         AVEKIN_QM  0.0000000000000000E+000
         AVETEMP_QM  0.0000000000000000E+000
         AVEVOL  3.8628690939550586E+004
         AVECELL_A  3.3727763157041423E+001
         AVECELL_B  3.3727763157041423E+001
         AVECELL_C  3.3727763157041423E+001
         AVEALPHA  9.0000000000000000E+001
         AVEBETA  9.0000000000000000E+001
         AVEGAMMA  9.0000000000000000E+001
         AVE_ECONS -1.3182848833257148E+002
         AVE_PRESS  3.9051878390203711E+002
         AVE_PXX  3.6561598086997105E+002
       &END RESTART_AVERAGES
     &END AVERAGES
   &END MD
   &PRINT
     &TRAJECTORY SILENT
       FILENAME =brines-1.xyz
       &EACH
         MD 1
       &END EACH
     &END TRAJECTORY
     &CELL SILENT
       FILENAME =brines-1.cell_xyz
       &EACH
         MD 1
       &END EACH
     &END CELL
     &VELOCITIES SILENT
       FILENAME =brines-1.vel
       &EACH
         MD 1
       &END EACH
     &END VELOCITIES
     &FORCES SILENT
       FILENAME =brines-1.force
       &EACH
         MD 1
       &END EACH
     &END FORCES
     &STRESS SILENT
       FILENAME =brines-1.stress
       &EACH
         MD 1
       &END EACH
     &END STRESS
     &RESTART SILENT
       FILENAME =brines-1.restart
       &EACH
         MD 1
       &END EACH
     &END RESTART
     &RESTART_HISTORY SILENT
       &EACH
         MD 50
       &END EACH
     &END RESTART_HISTORY
   &END PRINT
 &END MOTION
 &FORCE_EVAL
   METHOD QS
   STRESS_TENSOR ANALYTICAL
   &DFT
     BASIS_SET_FILE_NAME /ccc/work/cont003/gen2309/sicilana/DATA_CP2K/GTH_BASIS_SETS
     POTENTIAL_FILE_NAME /ccc/work/cont003/gen2309/sicilana/DATA_CP2K/GTH_POTENTIALS
     &SCF
       MAX_SCF 50
       EPS_SCF  9.9999999999999995E-008
       &OT T
         MINIMIZER DIIS
         PRECONDITIONER FULL_SINGLE_INVERSE
       &END OT
       &OUTER_SCF T
         EPS_SCF  9.9999999999999995E-008
         MAX_SCF 50
       &END OUTER_SCF
     &END SCF
     &QS
       EPS_DEFAULT  1.0000000000000000E-014
       EPSFIT  9.9999999999999995E-007
       EPSISO  9.9999999999999998E-013
       EPSRHO0  1.0000000000000000E-008
       QUADRATURE GC_LOG
       EXTRAPOLATION ASPC
       METHOD GAPW
     &END QS
     &MGRID
       NGRIDS 4
       CUTOFF  6.0000000000000000E+002
       REL_CUTOFF  6.0000000000000000E+001
     &END MGRID
     &XC
       DENSITY_CUTOFF  1.0000000000000000E-010
       GRADIENT_CUTOFF  1.0000000000000000E-010
       TAU_CUTOFF  1.0000000000000000E-010
       &XC_FUNCTIONAL NO_SHORTCUT
         &PBE T
           PARAMETRIZATION REVPBE
         &END PBE
       &END XC_FUNCTIONAL
       &VDW_POTENTIAL
         POTENTIAL_TYPE PAIR_POTENTIAL
         &PAIR_POTENTIAL
           R_CUTOFF  1.2000000000000000E+001
           TYPE DFTD3
           PARAMETER_FILE_NAME /ccc/work/cont003/gen2309/sicilana/DATA_CP2K/dftd3.dat
           REFERENCE_FUNCTIONAL "PBE"
           CALCULATE_C9_TERM T
           REFERENCE_C9_TERM T
           VERBOSE_OUTPUT T
           D3_EXCLUDE_KIND 3
         &END PAIR_POTENTIAL
       &END VDW_POTENTIAL
     &END XC
     &REAL_TIME_PROPAGATION
       INITIAL_WFN RT_RESTART
     &END REAL_TIME_PROPAGATION
     &PRINT
       &MO_CUBES SILENT
         WRITE_CUBE F
         NLUMO 10
         NHOMO 2
         &EACH
           MD 200
         &END EACH
       &END MO_CUBES
       &MOMENTS ON
         ADD_LAST NUMERIC
         COMMON_ITERATION_LEVELS 20000
         FILENAME =brines-1.dipoles
         REFERENCE COM
         &EACH
           MD 1
         &END EACH
       &END MOMENTS
     &END PRINT
   &END DFT
   &SUBSYS
     &CELL
       A  1.8787865035323769E+001  0.0000000000000000E+000  0.0000000000000000E+000
       B  0.0000000000000000E+000  1.8787865035323769E+001  0.0000000000000000E+000
       C  0.0000000000000000E+000  0.0000000000000000E+000  1.8787865035323769E+001
       MULTIPLE_UNIT_CELL 1 1 1
     &END CELL
     &COORD
       H  1.1265175858661340E+001  2.2859787239085676E+001  1.4022949088768111E+000
       H  1.0450746658959149E+001  2.1769529679398079E+001  2.1088457029178866E+000
       O  1.0770547761693921E+001  2.2633561558846687E+001  2.1730269720681612E+000
       H  7.8348078735127098E+000 -8.9976108956896912E+000  2.0308570303386348E+000
       H  6.8029332736804786E+000 -9.1882660779477998E+000  3.1253777011392554E+000
       O  7.6426557204328933E+000 -8.8069856402069586E+000  2.9513901584816815E+000
       H -1.0103384940077099E+001  4.7283543352325914E+001  4.6485244593501356E+001
       H -9.4716265432683642E+000  4.5823093070948737E+001  4.6423387192837289E+001
       O -1.0100294189309285E+001  4.6386802541664736E+001  4.6924036862696951E+001
       H  7.5001479428387521E+000  2.3913761065791046E+001  2.2572937380733656E+001
       H  9.0430499997127693E+000  2.3827697637008637E+001  2.2859729130325366E+001
       O  8.3121378869257416E+000  2.3430599725230635E+001  2.2414076827966760E+001
       H -1.0603515029551193E+001  5.3395574608525163E+000  9.3349652017676306E+000
       H -1.1152699448054783E+001  6.7929149040281525E+000  9.3708589251713015E+000
       O -1.0620119494088351E+001  6.0947466961780714E+000  9.8890302185864734E+000
       H  3.2457244635114250E+001  2.8298130390949893E+001 -6.0872130502439656E+000
       H  3.2272267882369732E+001  2.7519716911956159E+001 -7.3702382150425558E+000
       O  3.2831856544094755E+001  2.7553209398618325E+001 -6.5944418307785337E+000
       H -5.5646191110490681E+000  5.1674697973666035E+000  8.8306830421532823E+000
       H -4.7577727010304809E+000  5.1392058959562616E+000  1.0093388339009421E+001
       O -5.5662797342792905E+000  4.6662814307721838E+000  9.6867644134451769E+000
       H  2.4547811257915622E+001 -1.2467097128944842E+000 -3.6959035527480233E+000
       H  2.5332219106852424E+001 -7.2437128600013334E-001 -2.4114819827276217E+000
       O  2.4515055425723542E+001 -1.2328131204215245E+000 -2.7137792815340167E+000
       H  2.1017816835768794E+001  1.3268072310885834E+001  1.5185446469851801E+001
       H  2.1908543148940964E+001  1.3684063786210629E+001  1.4143825666544046E+001
       O  2.1003954187434950E+001  1.3891657384459672E+001  1.4432155717229829E+001
       H  2.4317681651283536E+001 -2.8594187765475138E-001  2.3856241518566144E+001
       H  2.3287312370107703E+001 -1.2342376066115759E+000  2.3813684736571403E+001
       O  2.4044056236401193E+001 -1.0810103451908606E+000  2.3295086923591693E+001
       H  4.5559180584435861E+000  6.7844373426157611E-001 -9.8687589320030664E+000
       H  3.3532968562316388E+000  9.1545458748727782E-001 -1.0795942812719369E+001
       O  4.2418170155639281E+000  3.4096834559359851E-001 -1.0691445034227771E+001
       H  1.2750691938992370E+001  4.0426934842130633E+000  2.3668373905103770E+001
       H  1.1873469904708957E+001  4.1381658900646867E+000  2.2484672738517837E+001
       O  1.1986183487577776E+001  4.5649025299442094E+000  2.3332675698702026E+001
       H  1.7068334603707452E+001  1.3875792438777559E+001  2.4154355087949630E+000
       H  1.5953165933283715E+001  1.4049065998449491E+001  3.4131995192871019E+000
       O  1.6858872733394900E+001  1.3667133359258395E+001  3.3498815785459044E+000
       H  6.5716618263863698E+000 -9.9782982902677340E+000 -6.4880974429425387E-001
       H  6.6803717097881448E+000 -1.1437254299784957E+001 -1.1638456499226979E+000
       O  7.1778146285788615E+000 -1.0546285635341178E+001 -1.2348689744537622E+000
       H  2.9973603128429779E+001  3.6536437917013480E+001  6.2417265656238441E-001
       H  3.0534217634000562E+001  3.6351716596756376E+001 -8.5801880543144937E-001
       O  2.9711666337227499E+001  3.6396084763543705E+001 -2.8228761644056138E-001
       H  1.5134173705059707E+001  2.5398865368440657E+000 -1.1330741165266552E+001
       H  1.4162559309094432E+001  2.5976377734371718E+000 -9.9600442601776109E+000
       O  1.4850801578434643E+001  2.0872914182983817E+000 -1.0465588341466946E+001
       H  1.9053801280494792E+001  9.4514368785663394E-001  5.4592532170653731E+000
       H  1.9587689609662981E+001  4.6520294230716047E-001  6.7786775997528679E+000
       O  1.9846971043680110E+001  9.8541283597380214E-001  6.0086913335305630E+000
       H  8.8003692314099933E+000 -1.1148795421633211E+000  1.7332764446762855E+001
       H  8.9063255957373126E+000  3.8597812318120428E-001  1.6914946838341034E+001
       O  8.2772304018059675E+000 -3.7454585482375796E-001  1.6983877276095004E+001
       H  4.5339607588197328E+000  1.7637123313958305E+001  7.3101791055349628E+000
       H  5.0509261434163086E+000  1.6116569524161644E+001  6.8855858704640864E+000
       O  4.2612669157816869E+000  1.6643065486701239E+001  7.2178438245901777E+000
       H  1.9413299709806658E+001  2.6639514094342157E+001  1.7655486814246364E+000
       H  2.0642383298127378E+001  2.5820066517468828E+001  1.8462442080767574E+000
       O  1.9989105646616885E+001  2.6299294143179100E+001  2.3999326629978501E+000
       H  1.6309059489340989E+001  1.2034874113963836E+001  2.0846341161314953E+001
       H  1.6052823711316091E+001  1.1964216829642632E+001  1.9201387681677087E+001
       O  1.6693803940350108E+001  1.1788507340230625E+001  1.9939816800875032E+001
       H  1.0410280188801551E+001 -1.1979219322767793E+001  1.7366150457637605E+001
       H  9.1361365266633339E+000 -1.1270872982871436E+001  1.7197755871762521E+001
       O  9.9417082781044464E+000 -1.1424990759520673E+001  1.6731796120527104E+001
       H  2.5979849788205694E+001  1.4224208306047815E+001  2.2505359830230404E+001
       H  2.7323275697918906E+001  1.4026494452450441E+001  2.2893070428269745E+001
       O  2.6562588221850230E+001  1.4535912184360159E+001  2.3151414730664403E+001
       H -1.7016567253231415E+001  7.7701877064730569E+000  1.4944291020503758E+001
       H -1.6914486323294749E+001  6.3091663685048545E+000  1.4440959308081609E+001
       O -1.6953255044096856E+001  7.2413446186820325E+000  1.4070995250164838E+001
       H -1.6722037655578642E-001  4.9884737297001678E+000  6.1612502555587403E+000
       H  1.0691493226748867E+000  5.5655493030255236E+000  6.9178851961654537E+000
       O  2.5797635124189167E-001  5.7970751401610192E+000  6.4563404354775527E+000
       H -6.5584407349226019E+000 -1.4815281335523713E+001  1.8204870456690017E+001
       H -6.8841740027305773E+000 -1.6329308216913571E+001  1.8202825030500712E+001
       O -7.2633224888667192E+000 -1.5427405785712189E+001  1.8332801470964174E+001
       H  2.7673855818603805E+001  8.8116145602538438E+000 -1.9319867569350221E-001
       H  2.8799362954122202E+001  9.4286863703449324E+000  4.8323381635627050E-001
       O  2.7803396601807432E+001  9.5597135267426676E+000  3.8011592616698003E-001
       H  1.1606750538585985E+001 -1.9253015385901433E+000  2.5741706376865466E+001
       H  1.2059707155230603E+001 -1.7873742562262709E+000  2.4156732546773039E+001
       O  1.2048338829344585E+001 -2.3358054565320252E+000  2.5028962868063520E+001
       H -5.0170592237694018E+000  7.6045191325834187E+000 -4.1416375812742121E+000
       H -5.8274515089242040E+000  8.7104005850843329E+000 -3.6526978967470423E+000
       O -5.5867062421010543E+000  7.8068078513580472E+000 -3.3659469511878424E+000
       H  7.1244363025499702E+000  4.7755995864523042E+000  1.3548704502985776E+000
       H  8.3318158200802905E+000  5.5949282308687449E+000  1.8381991841468261E+000
       O  7.5727825529811073E+000  5.6537578348610200E+000  1.3235400697106769E+000
       H  1.2535273331663912E+000 -9.1467121273706942E-001  1.8728754672764039E+000
       H -5.4602210657040712E-002 -4.7009580898721631E-001  2.5682198572213841E+000
       O  6.6501562441120476E-001 -1.2398931198420502E+000  2.5487779781435767E+000
       H -2.2690836737682467E+000  2.3223650137462926E+001 -6.0100027773538800E+000
       H -2.2371956952437473E+000  2.1959236844429384E+001 -5.1380951235077905E+000
       O -2.8492635970955904E+000  2.2729679945545143E+001 -5.4247541726890427E+000
       H  2.3245458592070577E+001  2.4255408823827594E+001  1.2829577297100197E+001
       H  2.3613760032729665E+001  2.4156942769373778E+001  1.1498013902187253E+001
       O  2.3281126796912254E+001  2.3622457765038774E+001  1.2151797446732827E+001
       H  3.1214892382075008E+000 -1.9927737616758570E+001 -6.1628422925225905E+000
       H  2.7441703213597899E+000 -1.8960941984391713E+001 -7.1706272239995084E+000
       O  3.3480790010932990E+000 -1.9687672686672361E+001 -7.0863426536639427E+000
       H  8.0999348440921501E+000  2.3333593217276611E+000  1.3100644916982038E+001
       H  7.6854506127502695E+000  3.3513603792551416E+000  1.2061790400587894E+001
       O  7.5681673077553180E+000  2.4355656382364397E+000  1.2316061098305086E+001
       H  1.3662633034919923E+001  1.9247117185606324E+001 -1.7675942053715030E+001
       H  1.3242804401864451E+001  2.0718102982054333E+001 -1.6915281094299282E+001
       O  1.3503623390907974E+001  2.0233287406248198E+001 -1.7673428718717140E+001
       H  1.3717412484277956E+001 -9.4099094742432605E+000 -1.9016588445280345E+001
       H  1.3511153925209188E+001 -7.9802214024311668E+000 -1.8763280592812954E+001
       O  1.3087690130958807E+001 -8.6520683045922180E+000 -1.9274238685175185E+001
       H  1.3341296039960204E+001 -1.5764287748101380E+000  2.8504458621891704E+001
       H  1.3163142036245477E+001 -2.7725741437433236E+000  2.7655522902101925E+001
       O  1.3712406520438817E+001 -2.3808779659920809E+000  2.8332054669657740E+001
       H  2.1767332229822589E+001  4.9656553139193358E+000  1.8447495761286170E+001
       H  2.0489301245750536E+001  5.4461204419411535E+000  1.9175149644340557E+001
       O  2.1126728481943250E+001  5.7611429284995994E+000  1.8533992160500077E+001
       H  1.5103456208972842E+001  2.0615144846868279E+001  1.1686879214541396E+001
       H  1.5725273291807186E+001  2.0851072101122178E+001  1.0277447314339573E+001
       O  1.5815343820099100E+001  2.1024512141848067E+001  1.1227054552429248E+001
       H  2.6683321624540457E+000  1.0794542988964244E+000  4.1022471960939200E+000
       H  2.5602227723239159E+000  5.4198289457115512E-001  2.5784776033909660E+000
       O  3.1092367576177811E+000  1.0360856502617470E+000  3.2139993661621604E+000
       H  1.9436980109276632E+001  2.3997308560027548E+001 -6.8733245344872147E+000
       H  1.8550084164272839E+001  2.3304257889968969E+001 -5.8850618483118016E+000
       O  1.9446839559959329E+001  2.3669600133279932E+001 -5.9288353076167306E+000
       H  2.7018115661516355E+000  3.4190513250154090E+001  1.6366197892974174E+001
       H  4.0841192597207119E+000  3.4443567444253389E+001  1.7202699327593919E+001
       O  3.4129758430742747E+000  3.4772452535792524E+001  1.6441549276634451E+001
       H  1.1800685034266730E+001  1.4492152223955956E+000  1.1891504497233338E+001
       H  1.2960713663380862E+001  2.4586422593136903E+000  1.2049366796804126E+001
       O  1.2454668979958333E+001  1.8134884200181243E+000  1.2493862716513387E+001
       H  1.3168273979272852E+001  1.4738555329179269E+001 -1.6919907469381606E+001
       H  1.4075670347495510E+001  1.5985318800121286E+001 -1.7242199992167457E+001
       O  1.3759866558741782E+001  1.5390649319483369E+001 -1.6513108969789897E+001
       H -1.0167803816071256E+001  1.4869884831785130E+001  7.7930550747159861E+000
       H -8.8208028972552697E+000  1.4670547512853460E+001  6.9587676675591705E+000
       O -9.2300826856538034E+000  1.4803053199484820E+001  7.8146295025409414E+000
       H  8.9219423304754280E+000  3.7044398208551925E+001  1.3261434114147422E+001
       H  8.7789960241541429E+000  3.5936438591304174E+001  1.4359329094210192E+001
       O  9.2978571633834601E+000  3.6222632889976218E+001  1.3641964837679417E+001
       H  6.3202764709334005E+000  5.3051080710144376E+000  1.8299763051717058E+001
       H  5.9923872198895731E+000  5.2369961797493252E+000  1.6820675696437348E+001
       O  5.7499708222394661E+000  5.8189548202804655E+000  1.7607066586571758E+001
       H -1.9796385511747288E+000  1.9748387137260131E+001 -1.8706272332585656E+000
       H -7.4263363016076478E-001  1.9116591113608795E+001 -1.4768152163211632E+000
       O -1.2338565417334626E+000  1.9882154439739182E+001 -1.1793911160912951E+000
       H -5.6954426193015069E+000  1.7162024110831002E+001  2.2284725011940946E+001
       H -7.0069361820361218E+000  1.7703813832080311E+001  2.2314724042685580E+001
       O -6.1635030825239889E+000  1.7914122105469811E+001  2.2617236348132543E+001
       H  1.8254703151175711E+001 -2.7967666472536106E+000  5.3057019084453447E+000
       H  1.8239274675988881E+001 -2.2105375881989024E+000  6.7934576604553953E+000
       O  1.8213024938634078E+001 -3.0309931652146513E+000  6.2690911626583050E+000
       H -3.1369958407819187E+001  2.6206703840525898E+000  2.1299992908903008E+001
       H -3.2679726037137883E+001  2.5912111615245781E+000  2.0500178735044376E+001
       O -3.2034096338104916E+001  3.1550807985829241E+000  2.0804428530326643E+001
       H  9.5221631960826070E+000  9.7474389403070276E+000  1.1168780120394464E+001
       H  1.0339686327335210E+001  1.0672199182916694E+001  1.2022006804684553E+001
       O  9.4659949326726807E+000  1.0188420201668480E+001  1.2044556361728334E+001
       H  1.7009693023267126E+001 -1.6202845746739172E+001  2.1935323495549905E+001
       H  1.6660909352174862E+001 -1.6169420396500605E+001  2.3377446744151325E+001
       O  1.7165253999840996E+001 -1.5697108851001873E+001  2.2747323614154638E+001
       H  1.0599867855897522E+000  1.4954146840498979E+001 -5.2757432191128384E+000
       H  4.0688901168889263E-002  1.5993532123164597E+001 -4.7331316553009168E+000
       O  1.5389092535790891E-001  1.5239781543329418E+001 -5.3987698175255954E+000
       H  1.9100683701700255E+001  9.7845856805136062E+000  1.7239961333426503E+001
       H  1.8099753333930469E+001  9.2999576487315085E+000  1.6149936178755834E+001
       O  1.9014538834129993E+001  9.2981481068295384E+000  1.6398793606109990E+001
       H  2.7686551135015294E+000  9.8369901188614914E+000  2.6282042548069416E+001
       H  3.3741755322034481E+000  9.8991082504461598E+000  2.4819545873373627E+001
       O  2.5975209305527200E+000  9.3691709979258615E+000  2.5351675672515182E+001
       H  3.3278047181264121E+000 -7.7568410917477264E+000 -2.5701489553377299E+000
       H  3.7364533355599825E+000 -6.5603708563840240E+000 -1.5923819869340303E+000
       O  3.2103023617474880E+000 -6.8420903112252214E+000 -2.3172720790931165E+000
       H  4.4793384413098671E+000  8.6966416832217135E+000  1.5984075928291597E+001
       H  3.7378237302751463E+000  7.8437644643636020E+000  1.7186922124621486E+001
       O  3.9887243101836605E+000  8.8083229182370246E+000  1.6799237088435639E+001
       H  6.5828823386248736E+000  2.4420967070981209E+001  3.3427107098678952E+001
       H  6.0620568172524418E+000  2.3204586169058377E+001  3.2696006672865487E+001
       O  5.8436068194483877E+000  2.3733849220514951E+001  3.3515963044641801E+001
       H  9.0820719434096038E+000  3.2452964040388537E+001 -2.2218009164825148E+000
       H  9.1751733032048719E+000  3.3824847749340080E+001 -1.6741522819085553E+000
       O  9.1778312001272990E+000  3.2907168860258508E+001 -1.3663095017516269E+000
       H  3.6925299856275512E-001  9.7450768474633538E+000  1.1641377283424175E+001
       H  9.2048304493942290E-001  1.1107445491116598E+001  1.2007183656759834E+001
       O  4.2812185971169708E-001  1.0616836889863388E+001  1.1314023049966872E+001
       H  1.4740240961620993E+001  1.3076313854124614E+001 -2.0201828472834528E+001
       H  1.6132308720754200E+001  1.3579002769521134E+001 -2.0307935356786651E+001
       O  1.5432653945554076E+001  1.3474981087294115E+001 -1.9711033097527878E+001
       H  1.3524629482408017E+001 -1.2319100137972863E+000  1.5863960666985605E+001
       H  1.2946864138839670E+001 -2.5236744346505162E+000  1.5713311384562141E+001
       O  1.3138314529377759E+001 -1.8811889638832628E+000  1.6390599290198139E+001
       H  1.4896102569889910E+001  8.2014142299959154E+000  2.1567236447934999E+001
       H  1.5584410636742051E+001  9.6379064609595879E+000  2.1428733928679360E+001
       O  1.5451677352624806E+001  8.7112659187771193E+000  2.0880340276865368E+001
       H  2.7814185657312716E+001 -7.6923523856490861E-001  2.0773685458146684E+001
       H  2.7985303341068700E+001 -1.0816331981155121E+000  2.2046974711395837E+001
       O  2.8252104804176842E+001 -1.4587945963448903E+000  2.1256801321965618E+001
       H  1.9952082157643204E+001  1.4922783917007548E+001  1.9455376072147615E+001
       H  1.9325186282520690E+001  1.4235564632912560E+001  1.8254106368660231E+001
       O  2.0043199150819543E+001  1.4155088970169597E+001  1.8878315825053349E+001
       H  1.0003986687302666E+001  5.2907827779857293E+000 -4.6960575459180349E+000
       H  1.0619158873693554E+001  6.7838759327893419E+000 -4.6245314396581012E+000
       O  1.0828602023990507E+001  5.8597106281104043E+000 -4.8724205163383845E+000
       H -2.1459436666871960E+000  1.2067697563579149E+001 -4.3405335420625857E+000
       H -2.6737707140396165E+000  1.3469524436319645E+001 -4.8391488845120723E+000
       O -2.4535561236087076E+000  1.2501126171029650E+001 -5.1431566977718512E+000
       H  8.1535315378267015E+000  8.2376214610791525E+000  1.3255916518622040E+001
       H  7.1162877103647322E+000  7.5681276190794611E+000  1.2425134296462067E+001
       O  7.4143130702466724E+000  7.5497652246680937E+000  1.3357431295168842E+001
       H -1.7398678403968468E+001 -4.1506611157913555E+000  5.1196302803926796E+000
       H -1.6620627797536411E+001 -2.9490849812315774E+000  5.1205586535398862E+000
       O -1.6808824614327868E+001 -3.6444544059636508E+000  4.4339267194101799E+000
       H  3.2015939692527767E-001  7.4122934928885558E+000 -5.8398030082246768E+000
       H -1.2031872592521504E+000  7.3174533407761349E+000 -6.2899584150550778E+000
       O -3.5514465476008900E-001  7.6692419034269284E+000 -6.5756559252599072E+000
       H  1.4057527745341346E+001  8.3753988880880428E+000  8.0503787692852207E+000
       H  1.3294727223882381E+001  9.5465498809042142E+000  8.6922524211882006E+000
       O  1.3995928917606008E+001  9.4026531783231757E+000  8.0255216713837108E+000
       H  2.9592520232955635E+000  1.0010797887463520E+001  3.5329606366700186E+000
       H  2.2270910209019701E+000  8.7904771198332181E+000  2.8749907946727982E+000
       O  2.1934798636355648E+000  9.8658702610368181E+000  2.9342283974590284E+000
       H  1.0866250647606950E+001  1.6312894302128004E+001 -6.4204511991919953E+000
       H  1.1257185507072377E+001  1.4972581692665532E+001 -7.0622019440433146E+000
       O  1.1662216995874680E+001  1.5767786012824333E+001 -6.7720339414057333E+000
       H  1.4955449702860840E+001  1.7612481510704409E+001  1.3275366173212209E+001
       H  1.6160304114425379E+001  1.7668855350973981E+001  1.4352556071083105E+001
       O  1.5288798362051148E+001  1.8081646581857587E+001  1.4102658268182898E+001
       H  6.3916380937025519E+000 -4.2619225744873424E+000 -1.2433187016830100E+001
       H  5.7286802748565053E+000 -5.0914185898896234E+000 -1.1259424285255793E+001
       O  6.1965792036963085E+000 -4.2772768857760690E+000 -1.1496994801554484E+001
       H  4.4343158756721337E+000  1.1718210267126885E+001  6.2808491163408666E+000
       H  5.6274977828427160E+000  1.0786658463960251E+001  6.2287421137741346E+000
       O  5.1822130348583446E+000  1.1475883674258588E+001  5.6973197367008703E+000
       H  1.2671295941875025E+001  6.2981157968403076E+000  1.0326812514335359E+001
       H  1.1644699156175216E+001  7.4475841041034752E+000  1.0218588324103985E+001
       O  1.2647475507418521E+001  7.2584364219633191E+000  1.0347713265092562E+001
       H  9.5825677585132740E-001  2.3664873155672588E+000 -6.6710090089431251E+000
       H  3.8648487928712155E-001  1.3450700156064292E+000 -5.3872263172259922E+000
       O  1.0307909551969174E+000  1.5044585548617904E+000 -6.2139027807818223E+000
       H  3.0201636958010254E+000  1.3789669802435192E+001  6.8389846501248135E+000
       H  3.2722644485187269E+000  1.3297366628484397E+001  8.2687840737150644E+000
       O  2.8929617343399516E+000  1.4104832300114476E+001  7.7470532545254684E+000
       H -7.2711054784489679E+000 -5.3710005378573573E+000  1.7007285437356078E+001
       H -7.2248772998040183E+000 -6.6695188132420302E+000  1.7672090958098511E+001
       O -6.6625390917924152E+000 -5.9000340084497918E+000  1.7519968547382774E+001
       H  1.8892137507258244E+001  2.9323423458854525E+000  1.4782051996637334E+001
       H  1.8498653540716756E+001  1.6128988741170536E+000  1.5393226216406699E+001
       O  1.8293331816675945E+001  2.2072425284324444E+000  1.4685591889161813E+001
       H  1.5683437114412893E+001 -3.6595379264905636E+000  2.8240263725208933E+001
       H  1.6742467357679953E+001 -4.7625214820285491E+000  2.8213486199245715E+001
       O  1.6219336009520294E+001 -4.2387624422563297E+000  2.8905805951106181E+001
       H  1.7929694911757220E+001  1.4809190965235421E+000  1.9832755197339104E+001
       H  1.9032656195179637E+001  2.1918181871845759E+000  2.0538859405654367E+001
       O  1.8429468284338622E+001  1.3185875319039964E+000  2.0654459222375035E+001
       H  9.8547487605300521E+000  2.1813204165616797E+000 -3.9150666424633815E+000
       H  1.0908545234071848E+001  1.7937819563567090E+000 -4.9435743339485141E+000
       O  9.8937845489717837E+000  1.7998366123937934E+000 -4.7471184757752880E+000
       H  1.0172804721001652E+001 -5.7854807775139578E+000 -4.9387583821914571E+000
       H  1.1734859094194173E+001 -6.3592165763208470E+000 -4.7392514575530278E+000
       O  1.0829182190398454E+001 -6.0830120640608127E+000 -4.2962036729593809E+000
       H  3.2488440378045055E+001  1.5506510757874777E+001  1.2747925443149157E+001
       H  3.3339561447999131E+001  1.4459839937565368E+001  1.2006781424612958E+001
       O  3.3193083617427867E+001  1.4846527950375354E+001  1.2952877003231949E+001
       H  1.9478727915831133E+001  9.1211605536294496E+000  8.5787698460154846E+000
       H  1.9530157239124716E+001  9.1917498552657211E+000  7.1152472744221313E+000
       O  1.8915074563075802E+001  9.1358806106433459E+000  7.8332247215861832E+000
       H  8.1377847558414889E+000 -7.2077909550541328E+000  7.4929266368525740E+000
       H  8.9374514649288432E+000 -6.5497761481881502E+000  8.7655738070574643E+000
       O  8.7198863496723131E+000 -7.3562533027773718E+000  8.2327238701445982E+000
       H -5.8717159507812502E+000  6.5341571838587909E+000  4.4758909364365191E+000
       H -4.5440469577096980E+000  6.7649188049709723E+000  5.1467097851735550E+000
       O -5.2464685211590592E+000  7.2689817739613307E+000  4.6403947000698169E+000
       H  1.4132666403860100E+001 -1.4063731787183411E+001 -2.4388644824001791E+000
       H  1.3758665631491093E+001 -1.3601723353876203E+001 -1.3523417479169646E+000