 # Version information for this restart file 
 # current date 2025-03-31 19:39:10.404
 # current working dir /ccc/scratch/cont003/gen2309/sicilana/NPT/128_H2O_4_NaCl_10_wt_673K_1000bar/BATCH_11_MD_T_673_P_1000_steps_1000_dt_0.5_NH2O_128_NaCl_4_abc_17.19_17.19_17.19_wt_9.20
 # Program compiled at                                       2024-10-31 15:04:21
 # Program compiled on                                                 topaze131
 # Program compiled for                                                   x86_64
 # Source code revision number                                                  
 &GLOBAL
   PRINT_LEVEL LOW
   PROJECT_NAME "brines"
   RUN_TYPE MD
   FLUSH_SHOULD_FLUSH T
 &END GLOBAL
 &MOTION
   &MD
     ENSEMBLE NPT_I
     STEPS 1000
     TIMESTEP  4.9999999999999994E-001
     STEP_START_VAL 26500
     TIME_START_VAL  1.3250000000006497E+004
     ECONS_START_VAL -2.4590398713531335E+003
     TEMPERATURE  6.7300000000000011E+002
     &BAROSTAT
       PRESSURE  1.0000000000000000E+003
       TIMECON  9.9999999999999989E+002
       &VELOCITY
          -3.4954268305329469E-006
       &END VELOCITY
       &MASS
           4.2836593343398705E+007
       &END MASS
       &THERMOSTAT
         TYPE CSVR
         &CSVR
           TIMECON  9.6755373060191388E+001
           &THERMOSTAT_ENERGY
               1.7093992483864177E-003
           &END THERMOSTAT_ENERGY
           &RNG_INIT
 Wiener process for Thermostat # 1        1 F T F   2.5575759460645392E-01         442616516.0        1094267586.0         754112728.0        1105384514.0        2727285801.0        1173271321.0             12345.0             12345.0             12345.0             12345.0             12345.0             12345.0             12345.0             12345.0             12345.0             12345.0             12345.0             12345.0
           &END RNG_INIT
         &END CSVR
       &END THERMOSTAT
     &END BAROSTAT
     &THERMOSTAT
       TYPE CSVR
       &CSVR
         TIMECON  9.9999999999999989E+002
         &THERMOSTAT_ENERGY
            -7.9102729623842349E-001
         &END THERMOSTAT_ENERGY
         &RNG_INIT
 Wiener process for Thermostat # 1        1 F T F  -1.2573070811272262E+00        2393259698.0        2922778945.0        4236387535.0         821323703.0        1269603635.0         486524847.0             12345.0             12345.0             12345.0             12345.0             12345.0             12345.0             12345.0             12345.0             12345.0             12345.0             12345.0             12345.0
         &END RNG_INIT
       &END CSVR
     &END THERMOSTAT
     &AVERAGES T
       &RESTART_AVERAGES
         ITIMES_START 1
         AVECPU  2.3137668106989285E+001
         AVEHUGONIOT  0.0000000000000000E+000
         AVETEMP_BARO  3.0705749682273324E+002
         AVEPOT -2.4597197262846994E+003
         AVEKIN  1.2218664864352913E+000
         AVETEMP  6.5785926605031796E+002
         AVEKIN_QM  0.0000000000000000E+000
         AVETEMP_QM  0.0000000000000000E+000
         AVEVOL  3.8648749242380181E+004
         AVECELL_A  3.3733651775884013E+001
         AVECELL_B  3.3733651775884013E+001
         AVECELL_C  3.3733651775884013E+001
         AVEALPHA  9.0000000000000000E+001
         AVEBETA  9.0000000000000000E+001
         AVEGAMMA  9.0000000000000000E+001
         AVE_ECONS -1.3271464448158810E+002
         AVE_PRESS  3.9357441653151056E+002
         AVE_PXX  3.7031376008821854E+002
       &END RESTART_AVERAGES
     &END AVERAGES
   &END MD
   &PRINT
     &TRAJECTORY SILENT
       FILENAME =brines-1.xyz
       &EACH
         MD 1
       &END EACH
     &END TRAJECTORY
     &CELL SILENT
       FILENAME =brines-1.cell_xyz
       &EACH
         MD 1
       &END EACH
     &END CELL
     &VELOCITIES SILENT
       FILENAME =brines-1.vel
       &EACH
         MD 1
       &END EACH
     &END VELOCITIES
     &FORCES SILENT
       FILENAME =brines-1.force
       &EACH
         MD 1
       &END EACH
     &END FORCES
     &STRESS SILENT
       FILENAME =brines-1.stress
       &EACH
         MD 1
       &END EACH
     &END STRESS
     &RESTART SILENT
       FILENAME =brines-1.restart
       &EACH
         MD 1
       &END EACH
     &END RESTART
     &RESTART_HISTORY SILENT
       &EACH
         MD 50
       &END EACH
     &END RESTART_HISTORY
   &END PRINT
 &END MOTION
 &FORCE_EVAL
   METHOD QS
   STRESS_TENSOR ANALYTICAL
   &DFT
     BASIS_SET_FILE_NAME /ccc/work/cont003/gen2309/sicilana/DATA_CP2K/GTH_BASIS_SETS
     POTENTIAL_FILE_NAME /ccc/work/cont003/gen2309/sicilana/DATA_CP2K/GTH_POTENTIALS
     &SCF
       MAX_SCF 50
       EPS_SCF  9.9999999999999995E-008
       &OT T
         MINIMIZER DIIS
         PRECONDITIONER FULL_SINGLE_INVERSE
       &END OT
       &OUTER_SCF T
         EPS_SCF  9.9999999999999995E-008
         MAX_SCF 50
       &END OUTER_SCF
     &END SCF
     &QS
       EPS_DEFAULT  1.0000000000000000E-014
       EPSFIT  9.9999999999999995E-007
       EPSISO  9.9999999999999998E-013
       EPSRHO0  1.0000000000000000E-008
       QUADRATURE GC_LOG
       EXTRAPOLATION ASPC
       METHOD GAPW
     &END QS
     &MGRID
       NGRIDS 4
       CUTOFF  6.0000000000000000E+002
       REL_CUTOFF  6.0000000000000000E+001
     &END MGRID
     &XC
       DENSITY_CUTOFF  1.0000000000000000E-010
       GRADIENT_CUTOFF  1.0000000000000000E-010
       TAU_CUTOFF  1.0000000000000000E-010
       &XC_FUNCTIONAL NO_SHORTCUT
         &PBE T
           PARAMETRIZATION REVPBE
         &END PBE
       &END XC_FUNCTIONAL
       &VDW_POTENTIAL
         POTENTIAL_TYPE PAIR_POTENTIAL
         &PAIR_POTENTIAL
           R_CUTOFF  1.2000000000000000E+001
           TYPE DFTD3
           PARAMETER_FILE_NAME /ccc/work/cont003/gen2309/sicilana/DATA_CP2K/dftd3.dat
           REFERENCE_FUNCTIONAL "PBE"
           CALCULATE_C9_TERM T
           REFERENCE_C9_TERM T
           VERBOSE_OUTPUT T
           D3_EXCLUDE_KIND 3
         &END PAIR_POTENTIAL
       &END VDW_POTENTIAL
     &END XC
     &REAL_TIME_PROPAGATION
       INITIAL_WFN RT_RESTART
     &END REAL_TIME_PROPAGATION
     &PRINT
       &MO_CUBES SILENT
         WRITE_CUBE F
         NLUMO 10
         NHOMO 2
         &EACH
           MD 200
         &END EACH
       &END MO_CUBES
       &MOMENTS ON
         ADD_LAST NUMERIC
         COMMON_ITERATION_LEVELS 20000
         FILENAME =brines-1.dipoles
         REFERENCE COM
         &EACH
           MD 1
         &END EACH
       &END MOMENTS
     &END PRINT
   &END DFT
   &SUBSYS
     &CELL
       A  1.8598379619071736E+001  0.0000000000000000E+000  0.0000000000000000E+000
       B  0.0000000000000000E+000  1.8598379619071736E+001  0.0000000000000000E+000
       C  0.0000000000000000E+000  0.0000000000000000E+000  1.8598379619071736E+001
       MULTIPLE_UNIT_CELL 1 1 1
     &END CELL
     &COORD
       H  1.1128002265118370E+001  2.2041501831137818E+001  1.3886671041943888E+000
       H  1.1903997984963997E+001  2.1492986025692510E+001  2.4421449589063196E+000
       O  1.1146173394573340E+001  2.2168890912908580E+001  2.3647984856729432E+000
       H  7.8204038589222193E+000 -8.8613328225967614E+000  2.3582322571614349E+000
       H  6.4643057973096196E+000 -9.2742571639587972E+000  3.1166038401137945E+000
       O  7.2945596661577419E+000 -8.6849063044664074E+000  3.1485945759160976E+000
       H -9.8477173932700648E+000  4.6726022144993216E+001  4.5761746938858018E+001
       H -9.0933122854749282E+000  4.5770434798860514E+001  4.6563791130508939E+001
       O -9.9908328222945944E+000  4.6068480210389993E+001  4.6460945184157268E+001
       H  7.3677203204066517E+000  2.3798305630020195E+001  2.2922604041290288E+001
       H  8.6741455247965451E+000  2.4169758998478574E+001  2.2278419562376325E+001
       O  8.1583611414274149E+000  2.3331822807340181E+001  2.2591001421606268E+001
       H -1.1109766709338496E+001  5.2624437351768476E+000  8.6464972824858553E+000
       H -1.0722424825808924E+001  6.4157952006472394E+000  9.6546610757202931E+000
       O -1.1207621890668655E+001  5.6255039813643721E+000  9.5843627290519553E+000
       H  3.2244390657755623E+001  2.7735116110195968E+001 -6.5744085432825026E+000
       H  3.2886164270680588E+001  2.6409703042782727E+001 -7.2235789928092498E+000
       O  3.2900236045234067E+001  2.6979729934709926E+001 -6.4092680261254653E+000
       H -5.6808665969466725E+000  4.3522836318880254E+000  8.8184235311255570E+000
       H -4.1879412272643455E+000  4.5101672515298219E+000  9.6542708194312254E+000
       O -5.2367912704124455E+000  4.2242322103568899E+000  9.6600455628909447E+000
       H  2.4919728908370914E+001 -1.7343279539019145E+000 -3.2607953747274170E+000
       H  2.5024493416709191E+001 -3.0673852152840630E-001 -3.4646044640695668E+000
       O  2.4360972779033805E+001 -9.9889384746464405E-001 -3.6057597357587627E+000
       H  2.1341275115138544E+001  1.2593480522436915E+001  1.4759255716973586E+001
       H  2.1444798315925404E+001  1.3157455453255817E+001  1.3454978565977743E+001
       O  2.0894967062851599E+001  1.3222734980504814E+001  1.4266983117832410E+001
       H  2.3194066602876038E+001 -1.2629108888998499E+000  2.2824964544074867E+001
       H  2.4464590428257999E+001 -1.7767742089729979E+000  2.3613733070855229E+001
       O  2.3955994552271331E+001 -9.6890144386998023E-001  2.3257302668163550E+001
       H  4.1125202137922940E+000  1.0806756961098452E+000 -9.7736496626274114E+000
       H  3.4496731183266447E+000  1.2351724981997270E+000 -1.1182996992306293E+001
       O  3.8581462107716273E+000  6.5711980604265974E-001 -1.0651216787269654E+001
       H  1.2783451606779668E+001  4.3498678968048061E+000  2.3862250483169440E+001
       H  1.1571173342191653E+001  4.8363232107521226E+000  2.2936158557687378E+001
       O  1.2124167691670827E+001  5.0026728470536632E+000  2.3751119913875122E+001
       H  1.7210690263035609E+001  1.3372342571724424E+001  3.8329169893733095E+000
       H  1.5716568032622051E+001  1.3681151879678875E+001  3.6389782312401651E+000
       O  1.6572178527601057E+001  1.3731165163979306E+001  3.1474094031154847E+000
       H  7.3727948622674786E+000 -1.0199358028718288E+001 -1.7843574786468754E+000
       H  6.8925334215324403E+000 -1.1494353523843403E+001 -9.0216783938814893E-001
       O  7.6370287245254991E+000 -1.0722424610353574E+001 -1.0614548478067793E+000
       H  2.9414402413119802E+001  3.5496687109459089E+001 -1.8608793366753254E-001
       H  3.0333548911772763E+001  3.6420542594589634E+001 -1.0071246416607875E+000
       O  2.9645874679651577E+001  3.6454482919060084E+001 -2.8810893221177136E-001
       H  1.5224310886696623E+001  2.7063631971154618E+000 -1.1094730148649688E+001
       H  1.4265223671371711E+001  2.7788013451044429E+000 -1.0022859048327826E+001
       O  1.4809494198273642E+001  2.1237842423881736E+000 -1.0419707445074206E+001
       H  1.8873207857319830E+001  6.4618886409599408E-001  5.3525581311988839E+000
       H  2.0111762386710719E+001  2.6087474030118163E-001  6.2364344553855986E+000
       O  1.9816911379326388E+001  8.6553197856014374E-001  5.5184638074484917E+000
       H  8.1750250700675675E+000  2.7559899675785804E-001  1.7599710865360269E+001
       H  8.8757519800398885E+000  7.3897173523635917E-001  1.6348401010204508E+001
       O  8.1513122037557633E+000  1.5066274241525893E-001  1.6626646913375144E+001
       H  4.8824170389227444E+000  1.7277724693889589E+001  7.3917138744775315E+000
       H  5.2402814702995055E+000  1.5747093964520454E+001  7.2980668064538765E+000
       O  4.5369802425356083E+000  1.6393910159761017E+001  7.4286516087592940E+000
       H  1.8625150837332150E+001  2.5770177954090155E+001  2.0292573376136755E+000
       H  2.0158962206081284E+001  2.5621234423966172E+001  1.4185621973425844E+000
       O  1.9586910803080187E+001  2.6165460837172578E+001  2.0312939601147004E+000
       H  1.6243161355945965E+001  1.2088552605236684E+001  2.0341724741749136E+001
       H  1.5689290608848168E+001  1.2067768605860778E+001  1.8868985188286253E+001
       O  1.6316562465019164E+001  1.1632947235827334E+001  1.9496319916717461E+001
       H  1.0387649735232902E+001 -1.0888565814995660E+001  1.6980229403762834E+001
       H  9.0801634483478715E+000 -1.1563239002397415E+001  1.6532331635132195E+001
       O  9.8937135018414786E+000 -1.1193958741529833E+001  1.6190347287346228E+001
       H  2.5478787652150174E+001  1.4664955809257203E+001  2.2023815389069924E+001
       H  2.5630567186757588E+001  1.3417897714618455E+001  2.3082453342826476E+001
       O  2.5826448216029842E+001  1.4432452420525093E+001  2.2926673466686765E+001
       H -1.6158303673290000E+001  7.3581892163201639E+000  1.4750182941108129E+001
       H -1.6616757176608257E+001  6.1108483895298713E+000  1.3838807563128341E+001
       O -1.6706125125106119E+001  7.0602076534261382E+000  1.4049850523376609E+001
       H -9.3038687688852895E-001  5.5109471505059000E+000  6.2914033145940831E+000
       H  1.5783693352265371E-001  6.1121248509898223E+000  7.1191115033467991E+000
       O  8.2795656918542695E-002  5.6576821498164422E+000  6.2653890073084453E+000
       H -6.5605960292973764E+000 -1.4948200832068219E+001  1.7643159426257359E+001
       H -6.1150321107094996E+000 -1.6194387558823440E+001  1.8365758073833668E+001
       O -6.8798620961061108E+000 -1.5861404594376786E+001  1.7907177182231013E+001
       H  2.7267914761823675E+001  8.8759977868684174E+000 -1.0697204327387518E-001
       H  2.8493039252152517E+001  8.8076231821210804E+000  1.1147862090860747E+000
       O  2.7912346049249205E+001  9.3740456962355676E+000  6.0073401603469034E-001
       H  1.1973090618715098E+001 -1.4250522097598237E+000  2.5288693712784600E+001
       H  1.1752558529202515E+001 -2.2079545457713521E+000  2.4135059672727490E+001
       O  1.1604494812349463E+001 -2.3424372040633612E+000  2.5021927329258826E+001
       H -4.9121500684326529E+000  7.8886819830684631E+000 -4.5971407712261012E+000
       H -5.7680991479317676E+000  7.0800222060070261E+000 -3.4833238370529083E+000
       O -4.8850263043273703E+000  7.4155461883993787E+000 -3.7515990977842688E+000
       H  6.3743173954931729E+000  5.2648700586050623E+000  1.7675612777235514E+000
       H  7.6657202666946258E+000  5.3075123939816047E+000  1.0696366831805975E+000
       O  6.8424318975709113E+000  5.9256256866683383E+000  1.1974837291007439E+000
       H  1.5768685708980930E+000 -1.5090598311727685E+000  2.8208794423408539E+000
       H  3.3397238195480011E-001 -5.0424437162081193E-001  2.5913354503164681E+000
       O  5.6609107194362684E-001 -1.4090862293837276E+000  2.6791191207546952E+000
       H -3.5310125313646759E+000  2.2716970442765525E+001 -5.3648696339266788E+000
       H -2.0657612574111512E+000  2.2106193063207257E+001 -5.2079949577433489E+000
       O -2.5596502164377468E+000  2.2934024608245046E+001 -5.2347560873099823E+000
       H  2.2056088958699434E+001  2.3086884096547511E+001  1.1928749354186197E+001
       H  2.3696505632959052E+001  2.2988608425940907E+001  1.1459195405561383E+001
       O  2.3000922564508596E+001  2.2862497335627896E+001  1.2237847584710103E+001
       H  2.4454046848162831E+000 -2.0197577942725307E+001 -6.6701431587564439E+000
       H  3.0437190376507606E+000 -1.8836422167414423E+001 -7.1450863755488863E+000
       O  3.2035682545372448E+000 -1.9806450515769949E+001 -7.1965558016249362E+000
       H  7.2236847715855879E+000  1.5299127879110843E+000  1.3117344151946789E+001
       H  8.2326736839389980E+000  2.4996668616180173E+000  1.2436826223290796E+001
       O  7.2610012752972333E+000  2.4106703309251780E+000  1.2697408289631056E+001
       H  1.4379512400231009E+001  2.0354528088609765E+001 -1.7709249361897829E+001
       H  1.4045188278299714E+001  1.8937568070443273E+001 -1.7481764574331077E+001
       O  1.3763836227161924E+001  1.9880956496296321E+001 -1.7185717936613273E+001
       H  1.3153252956818212E+001 -8.6872546539257343E+000 -2.0160008543337202E+001
       H  1.4092016689012679E+001 -9.3848190851327757E+000 -1.9126048395901499E+001
       O  1.3101659636423111E+001 -9.1787139065465766E+000 -1.9357777673633493E+001
       H  1.3443739045623637E+001 -1.5427747550199928E+000  2.8729446765247989E+001
       H  1.2629575902679372E+001 -2.5641957121835812E+000  2.7868915499148599E+001
       O  1.3583803544265516E+001 -2.1732230839963784E+000  2.7923466272187067E+001
       H  2.1628749055917734E+001  6.1030108176547184E+000  1.8836241689889103E+001
       H  2.0818273469554192E+001  4.8825071202436909E+000  1.9302806237007612E+001
       O  2.0760471634303975E+001  5.8104685506719171E+000  1.8985813844250760E+001
       H  1.5110324411892707E+001  2.1074384982958161E+001  1.1526644957774954E+001
       H  1.5524611951188392E+001  2.0915439681415169E+001  1.0024443622131781E+001
       O  1.5827463930685640E+001  2.0701504312592913E+001  1.0953502933080898E+001
       H  2.3529464518191179E+000  8.3242804968070394E-001  4.2353984100327038E+000
       H  2.9062824531087537E+000  3.8840589463828505E-002  3.1719884174592479E+000
       O  2.7515306874699710E+000  9.4787454775434021E-001  3.4014792741029276E+000
       H  1.8915751284872329E+001  2.4275799437650871E+001 -6.0429587284253738E+000
       H  1.9010533085178128E+001  2.2680968005340141E+001 -5.5551117647184842E+000
       O  1.9526625683431831E+001  2.3481487108936111E+001 -5.8135200971036252E+000
       H  3.2711191585163886E+000  3.3042140325014756E+001  1.5803451442063750E+001
       H  3.2042689407835252E+000  3.3493709197189339E+001  1.7232980898181339E+001
       O  3.2077555156800628E+000  3.3884247048343333E+001  1.6410032553577285E+001
       H  1.2881762128793019E+001  2.3665393533372132E+000  1.1444999648099452E+001
       H  1.2583939452177932E+001  2.9214822967224023E+000  1.2827641919656731E+001
       O  1.2644712477711714E+001  2.0126493288682439E+000  1.2356300509212598E+001
       H  1.3804809810964928E+001  1.4771368049353095E+001 -1.5423957230275322E+001
       H  1.4440442835553426E+001  1.4428545698520354E+001 -1.6781413967841559E+001
       O  1.3977080752360452E+001  1.5110242131062037E+001 -1.6346149758140307E+001
       H -9.4301763976857256E+000  1.4099703367209461E+001  7.2130035342551890E+000
       H -8.3887864099941183E+000  1.5289296178133654E+001  7.2120797939285843E+000
       O -8.9797464173002268E+000  1.4745355010568675E+001  7.8561856985793632E+000
       H  9.7817917194170718E+000  3.6447341565551653E+001  1.3905655551652520E+001
       H  8.4628083470550024E+000  3.5835439358322041E+001  1.3695253309249784E+001
       O  9.1826401898519858E+000  3.6228326349581593E+001  1.3153474678530943E+001
       H  5.9735127480514851E+000  5.3977078378140062E+000  1.8267385528908004E+001
       H  6.0718245837297591E+000  5.4917039017710820E+000  1.6679508955787217E+001
       O  5.8191533269568323E+000  6.0041374726786350E+000  1.7466324942862428E+001
       H -2.3662048703111438E+000  1.9462425140814581E+001 -1.3326375259981169E+000
       H -1.1838565692300544E+000  1.8504419865416200E+001 -1.7622968096192604E+000
       O -1.4371588194436262E+000  1.9318208644196062E+001 -1.2884278639740201E+000
       H -5.3487255664950508E+000  1.7596844009985332E+001  2.1470578564413547E+001
       H -6.8206587055132903E+000  1.6988838863972646E+001  2.1368683150957647E+001
       O -6.2386272765715711E+000  1.7654367656223023E+001  2.1889119523331377E+001
       H  1.7663655644631557E+001 -1.9419698024521661E+000  5.7644654399794826E+000
       H  1.8066003073981406E+001 -2.3021842371268106E+000  7.1984277948269177E+000
       O  1.7724686633888531E+001 -2.7394017311784591E+000  6.3396203116666303E+000
       H -3.0995189806301813E+001  1.7062997663243207E+000  2.0573348362434078E+001
       H -3.2054761348213646E+001  2.5843731857012844E+000  2.1244794235563916E+001
       O -3.1314318591902779E+001  2.6434313727185166E+000  2.0528963314756940E+001
       H  9.9451194171447366E+000  9.5179440793627244E+000  1.1247066181175338E+001
       H  9.9191327838244252E+000  9.6264815738344360E+000  1.2828983569189090E+001
       O  9.4636659451854612E+000  9.8092238666121858E+000  1.2009984380437237E+001
       H  1.6994753902241349E+001 -1.6059018425274367E+001  2.1983924740327129E+001
       H  1.6458160959738827E+001 -1.5873551739891269E+001  2.3393846615705339E+001
       O  1.6639939782533336E+001 -1.5357361960722750E+001  2.2572873517895701E+001
       H  1.0183380298189528E+000  1.4573475327471527E+001 -4.9129916099490130E+000
       H  1.3183438654053703E-001  1.5756434904817384E+001 -4.4974980928077040E+000
       O  3.6085288215816624E-001  1.5221261131887887E+001 -5.2839216614840963E+000
       H  1.8857986260656794E+001  9.4986309284143360E+000  1.7125625328788207E+001
       H  1.9730076484794637E+001  8.2350624789803124E+000  1.6857732229124537E+001
       O  1.8991784799637344E+001  8.8094243297934156E+000  1.6456041016470305E+001
       H  3.1054143290427003E+000  1.0253543838134794E+001  2.5499832474153973E+001
       H  2.8221647443059825E+000  9.4468066102867709E+000  2.4248936550614449E+001
       O  2.5983496730194382E+000  9.5626068898972729E+000  2.5113442655108141E+001
       H  3.4403963156604762E+000 -7.8233437160544179E+000 -2.3902834890784308E+000
       H  2.5332776486443200E+000 -6.8604675119935958E+000 -1.7174466173446465E+000
       O  3.1718633393539530E+000 -6.8798016732797294E+000 -2.4830429827848794E+000
       H  4.5210704050793407E+000  8.4657585824552584E+000  1.5750083985530553E+001
       H  3.6174028220632137E+000  8.1717373338374593E+000  1.6697559881648392E+001
       O  3.7839846223435019E+000  8.9427530026681481E+000  1.6255289659402195E+001
       H  6.3161307357400069E+000  2.4551423790433130E+001  3.3145802584454515E+001
       H  5.1884561909441773E+000  2.3526661609712892E+001  3.2826528905514515E+001
       O  5.8558343272664395E+000  2.3784814389970215E+001  3.3473629606353626E+001
       H  9.3476574668508032E+000  3.2586720375153128E+001 -2.0298679905196750E+000
       H  9.2550504255655515E+000  3.3848582692856624E+001 -1.0754190292646066E+000
       O  9.0840695981868116E+000  3.2903232554303379E+001 -1.1209367982789173E+000
       H  4.7118635288476174E-001  1.0030330389833621E+001  1.1867869901170842E+001
       H  8.9067201016990882E-001  1.0248875929178617E+001  1.0351314226533697E+001
       O  3.9972635207356993E-001  1.0671433696526321E+001  1.1107273746564440E+001
       H  1.4084795690651374E+001  1.3299125919388272E+001 -1.9684232550371352E+001
       H  1.5527434218715081E+001  1.3337625331181124E+001 -2.0559168894996755E+001
       O  1.5076419595740658E+001  1.3576949057719220E+001 -1.9630140366242372E+001
       H  1.3555459191176405E+001 -9.9831209096274653E-001  1.6378242100657520E+001
       H  1.3538892481263122E+001 -2.6743358087682210E+000  1.6319508038572689E+001
       O  1.2963318771806817E+001 -1.8370778981001588E+000  1.6255238421955735E+001
       H  1.5056802683630348E+001  9.8755369965547004E+000  2.1274076461981267E+001
       H  1.5833395677896904E+001  9.3704561823433501E+000  2.0072461363159842E+001
       O  1.5366672734646183E+001  9.0654422422398770E+000  2.0849192387796528E+001
       H  2.8471556673508509E+001 -7.6870931166081413E-001  2.0370843574453811E+001
       H  2.7677138021624234E+001 -1.1729389914279289E+000  2.1777398385299346E+001
       O  2.7934867990731380E+001 -1.4079351227329044E+000  2.0881270309361280E+001
       H  1.9555827240880006E+001  1.4721819394073439E+001  2.0222629742167729E+001
       H  1.9362251388314686E+001  1.5131301991108527E+001  1.8739537571029615E+001
       O  1.9856436809500565E+001  1.4483943421219081E+001  1.9317157121105357E+001
       H  1.0999155086864985E+001  6.3273619877712344E+000 -3.7568467959421947E+000
       H  1.1730947546686661E+001  6.1487453899835502E+000 -5.0679391942590524E+000
       O  1.0908024182444077E+001  5.9566222132243709E+000 -4.6134169399306924E+000
       H -1.7964615041715732E+000  1.2465374590170439E+001 -4.5415921848105150E+000
       H -2.9670675865285889E+000  1.3358258729152778E+001 -4.8104556028916052E+000
       O -2.6247145175090951E+000  1.2514785023656449E+001 -5.0090863250493332E+000
       H  7.9713589862363365E+000  7.8563403835503065E+000  1.3468482036649997E+001
       H  6.5863603128341399E+000  7.4958968860523134E+000  1.2857357157876908E+001
       O  7.0633707740373790E+000  7.6892483514670316E+000  1.3669253488554624E+001
       H -1.6583891448521268E+001 -4.3925316276793769E+000  5.1733994197527133E+000
       H -1.7588409012094186E+001 -3.4623719953014849E+000  4.3771758836760029E+000
       O -1.6716587132155265E+001 -3.7192855106534739E+000  4.5353803581111194E+000
       H  5.3346796709969158E-001  7.6811081726991386E+000 -5.4475692128974282E+000
       H -1.1153213012265530E+000  7.7641073804806533E+000 -5.4374255816643009E+000
       O -3.0539919594116666E-001  7.5600072961620421E+000 -6.0254883728121413E+000
       H  1.4027119527600782E+001  7.9172160437106358E+000  7.4998233927214146E+000
       H  1.2787278411089060E+001  8.8723037756305008E+000  7.5981012324389416E+000
       O  1.3721118255060965E+001  8.7716358673461698E+000  7.8423258716353130E+000
       H  3.3461664453103679E+000  9.9648177971144261E+000  3.3327778340339025E+000
       H  1.8430831433273347E+000  9.2111436990689999E+000  2.9931101976430350E+000
       O  2.3430418935332793E+000  1.0024635578015955E+001  3.2046720157798609E+000
       H  1.0539788989414374E+001  1.6600793743202676E+001 -6.2685714059417519E+000
       H  1.0533482421948086E+001  1.5323223943469721E+001 -7.1217421743599516E+000
       O  1.1165282654788815E+001  1.5982795268079684E+001 -6.6648852755434227E+000
       H  1.5167177927099081E+001  1.6753799848089773E+001  1.4238406046172921E+001
       H  1.6392525304656932E+001  1.7477663479112465E+001  1.4679120180918062E+001
       O  1.5459397914894568E+001  1.7599128706568756E+001  1.4444499180346767E+001
       H  5.7611887049091690E+000 -5.2942096555738702E+000 -1.2036587385223241E+001
       H  6.2585256393226594E+000 -5.3208226358583062E+000 -1.0621893828071451E+001
       O  6.0507041258653524E+000 -4.6785355133228910E+000 -1.1324066263690328E+001
       H  5.0246623477131758E+000  1.1449193082451149E+001  6.1260499009425047E+000
       H  6.0112184377469076E+000  1.1067209526301385E+001  5.0309776430752100E+000
       O  5.1745244257864682E+000  1.1585125923092702E+001  5.1528132740851031E+000
       H  1.2545995326605551E+001  6.5204591035386406E+000  9.6011141217878908E+000
       H  1.1739578660369045E+001  6.8590749005597242E+000  1.0869313896416992E+001
       O  1.2415588687942185E+001  7.1445750652063413E+000  1.0319517313848596E+001
       H  1.4571711945468193E+000  2.1993587585868770E+000 -6.7367673271140145E+000
       H  5.8765159026621994E-001  1.8207853555092615E+000 -5.7370860837218514E+000
       O  1.4674553590339734E+000  1.4503114474068854E+000 -6.0708063367929705E+000
       H  4.0225649707360756E+000  1.4075463980203118E+001  7.5590091426549169E+000
       H  3.2619748799892601E+000  1.3168626909424122E+001  8.5391872111034459E+000
       O  3.0914662931138324E+000  1.3856768786213543E+001  7.8372104604633863E+000
       H -6.8750529488620433E+000 -4.7055290974786788E+000  1.6968538417713368E+001
       H -7.2050490340026805E+000 -5.7427897869729065E+000  1.8090081786052810E+001
       O -6.5428660649733903E+000 -5.5121437196705338E+000  1.7374246133509935E+001
       H  1.8051762351121610E+001  2.3046022972576825E+000  1.5563336732966937E+001
       H  1.7845138916002718E+001  1.2573048962030020E+000  1.4478540298532776E+001
       O  1.7986620267120543E+001  2.2878372009734433E+000  1.4546574175855591E+001
       H  1.5344868109448409E+001 -3.3255431026563795E+000  2.8430132408945187E+001
       H  1.5256545175448766E+001 -4.8804932538518466E+000  2.8788103122049321E+001
       O  1.5838408298792379E+001 -4.1351267708300057E+000  2.8672780673323349E+001
       H  1.7488668722877986E+001  1.0960471252465802E+000  1.9871359451456112E+001
       H  1.8562865341139727E+001  2.0464732092233149E+000  2.0623279145202837E+001
       O  1.7944421178016594E+001  1.3393801294473380E+000  2.0693309505887246E+001
       H  9.8393353302222266E+000  2.6836527619186112E+000 -4.0210912090730959E+000
       H  1.0674571219982615E+001  1.6638686155387652E+000 -4.8260385996770365E+000
       O  9.9435357672465319E+000  1.6899395667906905E+000 -4.2490943721731753E+000
       H  9.9766240251398344E+000 -6.0294732726679134E+000 -4.5897610771633968E+000
       H  1.1468564143255183E+001 -6.0355039527242393E+000 -5.0078173211019479E+000
       O  1.0903894115094284E+001 -5.8173994836241949E+000 -4.1867237023096395E+000
       H  3.1675959954880351E+001  1.5456257097000451E+001  1.2501951902334190E+001
       H  3.2983728546345951E+001  1.5232090308919364E+001  1.1724011269389397E+001
       O  3.2570387684144954E+001  1.5021770954666612E+001  1.2531058092554170E+001
       H  1.9069965428935511E+001  8.4481827899639850E+000  8.6302780652825728E+000
       H  1.9734384381273795E+001  9.4861371208772756E+000  7.6214347441372876E+000
       O  1.8834735745112013E+001  9.1502746115573910E+000  7.9130981440695027E+000
       H  7.9725139607660198E+000 -7.0863511189945161E+000  8.8952413837336017E+000
       H  9.2297229698474457E+000 -6.7266865799012932E+000  8.3312453934747559E+000
       O  8.4082801238761888E+000 -7.0924131539700408E+000  7.9998174745733142E+000
       H -5.8431638880063375E+000  6.5423773858032179E+000  4.7197836706718377E+000
       H -4.6415227016266449E+000  7.5919180395446206E+000  4.8226928307489789E+000
       O -5.3858899085124685E+000  7.3336191332566258E+000  4.2431540856153438E+000
       H  1.4449176642124115E+001 -1.3382465583602915E+001 -2.3381472230860845E+000
       H  1.4685149660346916E+001 -1.3643566369518071E+001 -5.6169022329964757E-001