 # Version information for this restart file 
 # current date 2025-03-31 19:12:04.515
 # current working dir /ccc/scratch/cont003/gen2309/sicilana/NPT/128_H2O_4_NaCl_10_wt_673K_1000bar/BATCH_11_MD_T_673_P_1000_steps_1000_dt_0.5_NH2O_128_NaCl_4_abc_17.19_17.19_17.19_wt_9.20
 # Program compiled at                                       2024-10-31 15:04:21
 # Program compiled on                                                 topaze131
 # Program compiled for                                                   x86_64
 # Source code revision number                                                  
 &GLOBAL
   PRINT_LEVEL LOW
   PROJECT_NAME "brines"
   RUN_TYPE MD
   FLUSH_SHOULD_FLUSH T
 &END GLOBAL
 &MOTION
   &MD
     ENSEMBLE NPT_I
     STEPS 1000
     TIMESTEP  4.9999999999999994E-001
     STEP_START_VAL 26450
     TIME_START_VAL  1.3225000000006536E+004
     ECONS_START_VAL -2.4590398713531335E+003
     TEMPERATURE  6.7300000000000011E+002
     &BAROSTAT
       PRESSURE  1.0000000000000000E+003
       TIMECON  9.9999999999999989E+002
       &VELOCITY
          -5.4143326239066957E-006
       &END VELOCITY
       &MASS
           4.2836593343398705E+007
       &END MASS
       &THERMOSTAT
         TYPE CSVR
         &CSVR
           TIMECON  9.6755373060191388E+001
           &THERMOSTAT_ENERGY
               1.5083730579811059E-003
           &END THERMOSTAT_ENERGY
           &RNG_INIT
 Wiener process for Thermostat # 1        1 F T F   8.0290262654453093E-01        2333343249.0        1194755548.0        4023017371.0        2062266683.0        2637599543.0          38170176.0             12345.0             12345.0             12345.0             12345.0             12345.0             12345.0             12345.0             12345.0             12345.0             12345.0             12345.0             12345.0
           &END RNG_INIT
         &END CSVR
       &END THERMOSTAT
     &END BAROSTAT
     &THERMOSTAT
       TYPE CSVR
       &CSVR
         TIMECON  9.9999999999999989E+002
         &THERMOSTAT_ENERGY
            -7.9386051132666968E-001
         &END THERMOSTAT_ENERGY
         &RNG_INIT
 Wiener process for Thermostat # 1        1 F T F   2.4341206237793520E-01        3898816310.0        3842241111.0         556215351.0         913682288.0         945963185.0        2152332781.0             12345.0             12345.0             12345.0             12345.0             12345.0             12345.0             12345.0             12345.0             12345.0             12345.0             12345.0             12345.0
         &END RNG_INIT
       &END CSVR
     &END THERMOSTAT
     &AVERAGES T
       &RESTART_AVERAGES
         ITIMES_START 1
         AVECPU  2.3119936233803205E+001
         AVEHUGONIOT  0.0000000000000000E+000
         AVETEMP_BARO  3.0727544552639642E+002
         AVEPOT -2.4597190907391087E+003
         AVEKIN  1.2218980620629074E+000
         AVETEMP  6.5787626653231689E+002
         AVEKIN_QM  0.0000000000000000E+000
         AVETEMP_QM  0.0000000000000000E+000
         AVEVOL  3.8639347871422848E+004
         AVECELL_A  3.3730875928293422E+001
         AVECELL_B  3.3730875928293422E+001
         AVECELL_C  3.3730875928293422E+001
         AVEALPHA  9.0000000000000000E+001
         AVEBETA  9.0000000000000000E+001
         AVEGAMMA  9.0000000000000000E+001
         AVE_ECONS -1.3227253020924240E+002
         AVE_PRESS  3.9219521215142117E+002
         AVE_PXX  3.6703437597286677E+002
       &END RESTART_AVERAGES
     &END AVERAGES
   &END MD
   &PRINT
     &TRAJECTORY SILENT
       FILENAME =brines-1.xyz
       &EACH
         MD 1
       &END EACH
     &END TRAJECTORY
     &CELL SILENT
       FILENAME =brines-1.cell_xyz
       &EACH
         MD 1
       &END EACH
     &END CELL
     &VELOCITIES SILENT
       FILENAME =brines-1.vel
       &EACH
         MD 1
       &END EACH
     &END VELOCITIES
     &FORCES SILENT
       FILENAME =brines-1.force
       &EACH
         MD 1
       &END EACH
     &END FORCES
     &STRESS SILENT
       FILENAME =brines-1.stress
       &EACH
         MD 1
       &END EACH
     &END STRESS
     &RESTART SILENT
       FILENAME =brines-1.restart
       &EACH
         MD 1
       &END EACH
     &END RESTART
     &RESTART_HISTORY SILENT
       &EACH
         MD 50
       &END EACH
     &END RESTART_HISTORY
   &END PRINT
 &END MOTION
 &FORCE_EVAL
   METHOD QS
   STRESS_TENSOR ANALYTICAL
   &DFT
     BASIS_SET_FILE_NAME /ccc/work/cont003/gen2309/sicilana/DATA_CP2K/GTH_BASIS_SETS
     POTENTIAL_FILE_NAME /ccc/work/cont003/gen2309/sicilana/DATA_CP2K/GTH_POTENTIALS
     &SCF
       MAX_SCF 50
       EPS_SCF  9.9999999999999995E-008
       &OT T
         MINIMIZER DIIS
         PRECONDITIONER FULL_SINGLE_INVERSE
       &END OT
       &OUTER_SCF T
         EPS_SCF  9.9999999999999995E-008
         MAX_SCF 50
       &END OUTER_SCF
     &END SCF
     &QS
       EPS_DEFAULT  1.0000000000000000E-014
       EPSFIT  9.9999999999999995E-007
       EPSISO  9.9999999999999998E-013
       EPSRHO0  1.0000000000000000E-008
       QUADRATURE GC_LOG
       EXTRAPOLATION ASPC
       METHOD GAPW
     &END QS
     &MGRID
       NGRIDS 4
       CUTOFF  6.0000000000000000E+002
       REL_CUTOFF  6.0000000000000000E+001
     &END MGRID
     &XC
       DENSITY_CUTOFF  1.0000000000000000E-010
       GRADIENT_CUTOFF  1.0000000000000000E-010
       TAU_CUTOFF  1.0000000000000000E-010
       &XC_FUNCTIONAL NO_SHORTCUT
         &PBE T
           PARAMETRIZATION REVPBE
         &END PBE
       &END XC_FUNCTIONAL
       &VDW_POTENTIAL
         POTENTIAL_TYPE PAIR_POTENTIAL
         &PAIR_POTENTIAL
           R_CUTOFF  1.2000000000000000E+001
           TYPE DFTD3
           PARAMETER_FILE_NAME /ccc/work/cont003/gen2309/sicilana/DATA_CP2K/dftd3.dat
           REFERENCE_FUNCTIONAL "PBE"
           CALCULATE_C9_TERM T
           REFERENCE_C9_TERM T
           VERBOSE_OUTPUT T
           D3_EXCLUDE_KIND 3
         &END PAIR_POTENTIAL
       &END VDW_POTENTIAL
     &END XC
     &REAL_TIME_PROPAGATION
       INITIAL_WFN RT_RESTART
     &END REAL_TIME_PROPAGATION
     &PRINT
       &MO_CUBES SILENT
         WRITE_CUBE F
         NLUMO 10
         NHOMO 2
         &EACH
           MD 200
         &END EACH
       &END MO_CUBES
       &MOMENTS ON
         ADD_LAST NUMERIC
         COMMON_ITERATION_LEVELS 20000
         FILENAME =brines-1.dipoles
         REFERENCE COM
         &EACH
           MD 1
         &END EACH
       &END MOMENTS
     &END PRINT
   &END DFT
   &SUBSYS
     &CELL
       A  1.8667708292934918E+001  0.0000000000000000E+000  0.0000000000000000E+000
       B  0.0000000000000000E+000  1.8667708292934918E+001  0.0000000000000000E+000
       C  0.0000000000000000E+000  0.0000000000000000E+000  1.8667708292934918E+001
       MULTIPLE_UNIT_CELL 1 1 1
     &END CELL
     &COORD
       H  1.0917966754777630E+001  2.2189302757621398E+001  1.2458745900126065E+000
       H  1.1324955873188417E+001  2.1614932731222304E+001  2.6779180295841964E+000
       O  1.0931737170622199E+001  2.2380679589468130E+001  2.2536452226402441E+000
       H  7.9388775390497246E+000 -9.1382785957441541E+000  2.2705991079222532E+000
       H  6.4600424995654695E+000 -8.9980612004436402E+000  2.9913272645161331E+000
       O  7.4379316846096541E+000 -8.7614040764280290E+000  3.0694154030810115E+000
       H -1.0006534409952515E+001  4.6975398045242557E+001  4.6067738472419776E+001
       H -9.3274332794508936E+000  4.5694576460062287E+001  4.6284126430009252E+001
       O -1.0034803925155938E+001  4.6182550418487246E+001  4.6674072072076115E+001
       H  7.3753524553567651E+000  2.3518606764058735E+001  2.2734564993886345E+001
       H  8.8305980725975211E+000  2.4003167529915139E+001  2.2837350894350369E+001
       O  8.2241633749721501E+000  2.3382551277602417E+001  2.2365350830806811E+001
       H -1.0943900745342354E+001  5.0550185503243590E+000  9.1828139762950904E+000
       H -1.1197972396130206E+001  6.7048028524138301E+000  9.2688859263965355E+000
       O -1.0879500231259982E+001  5.8680966891689339E+000  9.7239955556607143E+000
       H  3.2108664255964449E+001  2.7931443350679736E+001 -6.8084913275882935E+000
       H  3.2324038972020524E+001  2.6499017029388046E+001 -6.9979298276805020E+000
       O  3.2777829502910414E+001  2.7200029571818483E+001 -6.5205115921970753E+000
       H -6.0180252223921320E+000  4.5146489478825371E+000  9.0312440519338644E+000
       H -4.4864879408669980E+000  4.7652935439932653E+000  9.3425624596420143E+000
       O -5.3387804281847853E+000  4.4569350853136180E+000  9.6765149450497550E+000
       H  2.4790427189788087E+001 -1.7316292168523419E+000 -3.7942617890360459E+000
       H  2.5118378680883506E+001 -4.6071228340663084E-001 -2.8344181670721849E+000
       O  2.4424356229013476E+001 -1.1222193220599439E+000 -3.1953311183282751E+000
       H  2.1087540470982116E+001  1.2755914359545127E+001  1.4950521313778014E+001
       H  2.1350413383765751E+001  1.3370913644897133E+001  1.3441195015380906E+001
       O  2.0909738163386486E+001  1.3604412338837482E+001  1.4343332993779377E+001
       H  2.3317230220565570E+001 -2.5214030670478310E-001  2.3139278140629358E+001
       H  2.3384487951784031E+001 -1.6738581005849289E+000  2.3681786500330290E+001
       O  2.4012317519481847E+001 -1.0713773927296042E+000  2.3279100530223673E+001
       H  4.6070175077345601E+000  5.3999066604036183E-001 -9.8521200018012465E+000
       H  3.5605387619564701E+000  1.3262711378315766E+000 -1.0645372768097804E+001
       O  4.0258942313812431E+000  4.8073092411824170E-001 -1.0677695322353678E+001
       H  1.2701214747922334E+001  4.1281852511659052E+000  2.3598395281559721E+001
       H  1.1591230589373865E+001  4.5500033898271743E+000  2.2666734390818807E+001
       O  1.2060798732431305E+001  4.8048564784977064E+000  2.3539150571693689E+001
       H  1.7436879168478544E+001  1.4040573374127657E+001  2.8737549388086880E+000
       H  1.6185611062290008E+001  1.4302340207487241E+001  3.6718093871478357E+000
       O  1.6636187565801450E+001  1.3627163240872701E+001  3.2573732995749145E+000
       H  7.1047435301231729E+000 -9.7905422522925090E+000 -1.3503984015366990E+000
       H  6.8287143113402635E+000 -1.1348447760845177E+001 -1.2824017649997566E+000
       O  7.4968031570642228E+000 -1.0654926405501961E+001 -1.1137578511667725E+000
       H  2.9891697077555243E+001  3.5768668003539211E+001  3.6834828287679727E-001
       H  2.9790175743957953E+001  3.6033186952094049E+001 -1.1195223259277132E+000
       O  2.9656580142609624E+001  3.6407462291262732E+001 -2.6797099348477982E-001
       H  1.5733149250832328E+001  2.4024946206190347E+000 -1.0886714029049495E+001
       H  1.4322082987126420E+001  2.9380206510773359E+000 -1.0476463687772435E+001
       O  1.4828528755648620E+001  2.0854632139159643E+000 -1.0469865409803317E+001
       H  1.8826351452885792E+001  1.1275311484123567E+000  5.7429386174399726E+000
       H  1.9959627826335488E+001  3.8741350161131410E-001  6.5713486418153737E+000
       O  1.9792104845917468E+001  9.0084519200359392E-001  5.7462982009779964E+000
       H  8.2886974538335476E+000 -7.9971104949685634E-001  1.7448571615797526E+001
       H  8.9878790468453484E+000  5.2629303819841222E-001  1.6927794941050372E+001
       O  8.1901858464605706E+000 -7.8931380494469586E-002  1.6753952257623311E+001
       H  4.7424648492360699E+000  1.7348252351194063E+001  7.4157923846720939E+000
       H  5.0808060611645471E+000  1.5834489960226046E+001  7.4737220806731193E+000
       O  4.3656978104605910E+000  1.6484384722267816E+001  7.3211237871548871E+000
       H  1.8968434797236945E+001  2.6647565452490856E+001  2.3245109192541005E+000
       H  2.0048432370106511E+001  2.5787447458016132E+001  1.3802491436764650E+000
       O  1.9821203172017125E+001  2.6215821406122952E+001  2.2306803837286733E+000
       H  1.6598892883332695E+001  1.2231855641330379E+001  2.0393278532290328E+001
       H  1.6287878737149089E+001  1.2252436684211562E+001  1.8945647257199386E+001
       O  1.6527576059473677E+001  1.1629713653396907E+001  1.9646606875231257E+001
       H  1.0596919754796463E+001 -1.1040232188022932E+001  1.7011450135723067E+001
       H  8.9305755533554638E+000 -1.0915479906476289E+001  1.6885533944786179E+001
       O  9.8030682937331530E+000 -1.1310611453755110E+001  1.6513010533245588E+001
       H  2.5806338668150936E+001  1.4266501894689686E+001  2.2125024128471576E+001
       H  2.6787896990570307E+001  1.3714508909746780E+001  2.3167988924079577E+001
       O  2.6123392393824645E+001  1.4470900415281596E+001  2.2979286408858133E+001
       H -1.7064897688070850E+001  7.5483003763536569E+000  1.4778854135723305E+001
       H -1.7317526922825699E+001  6.2223784804511162E+000  1.3915800203358510E+001
       O -1.6841941572412402E+001  7.0700396674531971E+000  1.3948056590910571E+001
       H -1.7330097152463894E-001  4.8545324971590542E+000  6.6259691078726872E+000
       H  5.6164303074346855E-001  5.9883367887689980E+000  7.1071467197465976E+000
       O  1.1003107600352897E-001  5.7185669332216520E+000  6.3464070411052953E+000
       H -6.2718653396494171E+000 -1.5175797132395623E+001  1.7676769250071366E+001
       H -6.6769543481962970E+000 -1.6373978203547637E+001  1.8523370680705355E+001
       O -7.0751640198649275E+000 -1.5583223693155620E+001  1.8090338145226415E+001
       H  2.7352288409983188E+001  8.5968515551781053E+000  3.6424976344490168E-001
       H  2.8556536980308294E+001  9.3315888872398514E+000  1.0140271041709694E+000
       O  2.7806413892638652E+001  9.4219443079238943E+000  3.7720173408192609E-001
       H  1.1509018225172566E+001 -1.5957111173513732E+000  2.5460901258201293E+001
       H  1.2211238415835696E+001 -1.9611361640231595E+000  2.4168071168462912E+001
       O  1.1848197177545945E+001 -2.4171461659053692E+000  2.4998188314392660E+001
       H -4.9448293196701636E+000  7.7631234818649899E+000 -4.4365279103263138E+000
       H -5.8523583524979834E+000  8.3807286031948447E+000 -3.4763930335550359E+000
       O -5.2574463297675731E+000  7.5425040445430946E+000 -3.5616679909560762E+000
       H  6.8435537124310555E+000  5.2373474553647643E+000  2.0644474590983131E+000
       H  8.1220047722561635E+000  5.4292523312060919E+000  1.3858711174646852E+000
       O  7.2100841688610711E+000  5.7697895325174988E+000  1.3057213717340241E+000
       H  1.3431360164679531E+000 -1.6348787464342931E+000  2.0236869918078519E+000
       H  3.6283250638066922E-001 -3.5763645848088749E-001  2.5207240336359500E+000
       O  6.3276028437988285E-001 -1.2952205889722130E+000  2.6239680310705702E+000
       H -2.5692618012984396E+000  2.3073099420219133E+001 -6.2196594367474836E+000
       H -2.2341229436850054E+000  2.1997386222839292E+001 -5.2825704552107373E+000
       O -2.7246674102508042E+000  2.2771301761187843E+001 -5.3170117580437228E+000
       H  2.2299547878352175E+001  2.3674548090700998E+001  1.2382222308719699E+001
       H  2.3353769493944636E+001  2.3524725759374164E+001  1.1247107521628026E+001
       O  2.3162727596759293E+001  2.3220856945863517E+001  1.2189965041632203E+001
       H  2.7820938906776811E+000 -2.0415911187017628E+001 -6.6276854627686976E+000
       H  2.6684976177321706E+000 -1.9136132917180994E+001 -7.5821511476755941E+000
       O  3.3116936236715646E+000 -1.9654751366065913E+001 -7.1032076495892476E+000
       H  7.6969451563818385E+000  1.8657341515469066E+000  1.3208911661075518E+001
       H  8.2113399998439061E+000  2.7859329550924983E+000  1.2109785292112528E+001
       O  7.3904104017144574E+000  2.4189852902242275E+000  1.2517082145910651E+001
       H  1.4280962475820075E+001  1.9521684682719716E+001 -1.7931770273359010E+001
       H  1.2901167757505164E+001  1.9574817139580947E+001 -1.6990332313095912E+001
       O  1.3658232342831749E+001  2.0061823609388693E+001 -1.7391799459415672E+001
       H  1.3653803628394487E+001 -9.1595021479162018E+000 -1.9992060823231945E+001
       H  1.3825159540428045E+001 -8.6062980388823771E+000 -1.8709576209461801E+001
       O  1.3060747730568712E+001 -8.8789668360962164E+000 -1.9290908852876530E+001
       H  1.3299358633764266E+001 -1.4218182380124873E+000  2.8411717723424402E+001
       H  1.2795685383560148E+001 -2.5840717217287827E+000  2.7614063852237155E+001
       O  1.3616940709695823E+001 -2.2695856550876350E+000  2.8112209017278779E+001
       H  2.1799175528501962E+001  5.5440139931662547E+000  1.8389506232834780E+001
       H  2.0356939432386060E+001  4.8746815061266346E+000  1.8877066152603778E+001
       O  2.0888555547993299E+001  5.7228753674500927E+000  1.8786179887403303E+001
       H  1.5135554398254444E+001  2.0710096128534211E+001  1.1745616397375628E+001
       H  1.5460992213092227E+001  2.0590535843114704E+001  1.0257279765835760E+001
       O  1.5819510506101906E+001  2.0884037715181936E+001  1.1112313651998180E+001
       H  2.1509373480151375E+000  1.0392651216709310E+000  3.9809807384336393E+000
       H  2.6130792644161249E+000  3.0401835917698222E-001  2.6424979819265300E+000
       O  2.9278624063199734E+000  9.6744025101794784E-001  3.2972075733811916E+000
       H  1.9410375414162271E+001  2.4355710292318971E+001 -6.3684001484753869E+000
       H  1.8629048611850859E+001  2.3609279684664177E+001 -5.4363194249125044E+000
       O  1.9512172686365776E+001  2.3586821851085134E+001 -5.8433425334451128E+000
       H  2.6000724451199098E+000  3.3668015878985095E+001  1.6270008014008948E+001
       H  3.9571923169358101E+000  3.3750062298733909E+001  1.7014985031241544E+001
       O  3.3365932620788583E+000  3.4255815847330474E+001  1.6421428703087621E+001
       H  1.1891830676473845E+001  1.8359733872499509E+000  1.1693012612398828E+001
       H  1.2609037230979840E+001  2.7848901947899543E+000  1.2652298594519026E+001
       O  1.2568175084610099E+001  1.8787457870484101E+000  1.2390518235119437E+001
       H  1.3179612627724708E+001  1.4510905975250150E+001 -1.6512212934193556E+001
       H  1.4536984931690329E+001  1.4930464600037958E+001 -1.6957992657625223E+001
       O  1.3855527425431786E+001  1.5259040318232778E+001 -1.6383473587022014E+001
       H -9.8631751087179946E+000  1.4552375740109602E+001  7.3906226345346662E+000
       H -8.3257840579069597E+000  1.5061833687913486E+001  7.2398203108997343E+000
       O -9.0770294058109418E+000  1.4738635643490500E+001  7.8136332654092486E+000
       H  9.3303291870619720E+000  3.7128529446928816E+001  1.3251205092469670E+001
       H  8.4936224586122435E+000  3.6034825519805125E+001  1.3992575421159842E+001
       O  9.2114311647074931E+000  3.6138455799558130E+001  1.3385026986236236E+001
       H  6.3138490867538666E+000  5.5619083639672056E+000  1.8215058238399802E+001
       H  5.5816774173000345E+000  5.0279356294654276E+000  1.7011454300120654E+001
       O  5.8178092793036633E+000  5.8851078398621546E+000  1.7478926399693016E+001
       H -2.1824232571026285E+000  1.9181359482022266E+001 -1.4478466010083970E+000
       H -7.7688453636096755E-001  1.8840467755299947E+001 -1.7504775940173138E+000
       O -1.3285354851654165E+000  1.9574394093513327E+001 -1.2609948310372541E+000
       H -5.3117240523118063E+000  1.7398653038000056E+001  2.2196736857232253E+001
       H -6.6769261572088761E+000  1.7179705810203298E+001  2.1463395337798058E+001
       O -6.2083567920237099E+000  1.7790462436614330E+001  2.2201844413174282E+001
       H  1.8081041053607716E+001 -2.4953140342356677E+000  5.4040310127985727E+000
       H  1.8208080797653324E+001 -2.2295547952494461E+000  6.9114867663238444E+000
       O  1.7930514208953145E+001 -2.8990611179993668E+000  6.3071452648466506E+000
       H -3.0983083170579157E+001  2.1596309338164703E+000  2.0870609539315168E+001
       H -3.2492125187108449E+001  2.5063098879396359E+000  2.0445506380994722E+001
       O -3.1630784851554697E+001  2.8860301765831493E+000  2.0637828761019986E+001
       H  9.3891776317199103E+000  1.0202716015987436E+001  1.1064224633396430E+001
       H  1.0269172304285295E+001  1.0402979605088722E+001  1.2448484011470720E+001
       O  9.4863712499507802E+000  9.9647712228316028E+000  1.1980116691513690E+001
       H  1.7172103521302482E+001 -1.6049379336298937E+001  2.1787305702747062E+001
       H  1.6595116461862698E+001 -1.6164732516671663E+001  2.3229775603425043E+001
       O  1.6896893181598060E+001 -1.5494202087202707E+001  2.2622741630599634E+001
       H  4.7117059967741126E-001  1.4451993664212049E+001 -4.5872995421932696E+000
       H  3.7682076285729177E-001  1.5950814478904299E+001 -4.6548983319666020E+000
       O  3.2303234179325663E-001  1.5167428437388237E+001 -5.2527903547486909E+000
       H  1.9158819450822513E+001  9.7530480260997567E+000  1.7060841963514044E+001
       H  1.8848147665824271E+001  8.3080352384649494E+000  1.7069016291872050E+001
       O  1.8983740131334383E+001  9.0894416161284877E+000  1.6367514874515916E+001
       H  2.7500982050192206E+000  9.4028359973171121E+000  2.6146456285224787E+001
       H  3.3711226882131111E+000  9.6669651547963404E+000  2.4725801174542195E+001
       O  2.5186168254386132E+000  9.4748989063905320E+000  2.5153353908535365E+001
       H  2.9540773516882486E+000 -7.7732269892018744E+000 -2.2338076087909089E+000
       H  3.2621285517879954E+000 -6.2528777812820682E+000 -1.6855179626264063E+000
       O  3.1824624625375129E+000 -6.8294237155235642E+000 -2.4520445562789210E+000
       H  4.6725202211912027E+000  8.4619845470487203E+000  1.6032496953381578E+001
       H  3.5808056713737062E+000  7.9244269271110426E+000  1.6691003911530707E+001
       O  3.8742366281616314E+000  8.8696460551330301E+000  1.6500124611730921E+001
       H  6.4572493604260623E+000  2.4414122496462184E+001  3.3311492973772133E+001
       H  5.6063356465686471E+000  2.3341578267894590E+001  3.2548691751897380E+001
       O  5.8245394011185168E+000  2.3726773237516252E+001  3.3463856476091941E+001
       H  9.1728530700894950E+000  3.2528831349402168E+001 -2.1908131788103153E+000
       H  8.9682674326125085E+000  3.3795367436859920E+001 -1.3317214405744011E+000
       O  9.1421687688791184E+000  3.2845708440673974E+001 -1.2413640128238883E+000
       H  2.7971082562848931E-001  9.9423606292838471E+000  1.1852434095772399E+001
       H  1.4035485262505201E+000  1.0870385666464987E+001  1.1153191931531479E+001
       O  4.0084238409568851E-001  1.0637323035231779E+001  1.1207777999666003E+001
       H  1.4672469532982216E+001  1.3052216509597617E+001 -2.0318242014778633E+001
       H  1.6095970241539533E+001  1.3498921019070073E+001 -1.9969894379443879E+001
       O  1.5167302393007851E+001  1.3524308387840076E+001 -1.9655836524017026E+001
       H  1.3447606146029866E+001 -1.0492460524115765E+000  1.6015908973717593E+001
       H  1.3412588133947438E+001 -2.5663393390004856E+000  1.5706326923065719E+001
       O  1.3036993702772767E+001 -1.8713099593901421E+000  1.6319807061572785E+001
       H  1.4930459923038718E+001  9.0222169176608809E+000  2.1742339213318459E+001
       H  1.5582186936980321E+001  9.6861763369374572E+000  2.0520896316459162E+001
       O  1.5380573743353848E+001  8.8407782128904806E+000  2.0882206104252958E+001
       H  2.7921403671534097E+001 -5.9903518121265464E-001  2.0588507409190910E+001
       H  2.7723524319038187E+001 -1.1533384353666258E+000  2.2026086000943391E+001
       O  2.8034080055304660E+001 -1.4413616508097962E+000  2.1059642371095713E+001
       H  1.9985280462396748E+001  1.4912375246448097E+001  1.9834260718085776E+001
       H  1.9312586106439390E+001  1.4797806458136041E+001  1.8441057706586122E+001
       O  1.9906824121217753E+001  1.4299209519746938E+001  1.9063828881977262E+001
       H  1.0310854917601267E+001  5.8085438553591384E+000 -3.9166227332401506E+000
       H  1.0793661166450287E+001  6.8246560678082240E+000 -4.9614242477405890E+000
       O  1.0903401631004705E+001  5.8954300690262080E+000 -4.7386782483704115E+000
       H -1.9129793786985290E+000  1.2206037534446320E+001 -4.4410874526437816E+000
       H -2.7939977015505160E+000  1.3366746734439442E+001 -4.7803989347571791E+000
       O -2.5269974097199981E+000  1.2489599897310674E+001 -5.0591845742416446E+000
       H  8.1579904842611768E+000  7.7871122979218681E+000  1.3180566793398413E+001
       H  6.8013990152473047E+000  7.3554503403549170E+000  1.2671649653844749E+001
       O  7.2313598344739836E+000  7.6305918964749084E+000  1.3503565095358766E+001
       H -1.6856713974185141E+001 -4.4922906849210600E+000  5.1339338842826958E+000
       H -1.7287520556398874E+001 -2.9906860383191201E+000  4.9636836544714766E+000
       O -1.6747698740105402E+001 -3.6627026824988844E+000  4.4804504963359930E+000
       H  4.0876383186486293E-001  7.4518359930335709E+000 -5.5679519792828591E+000
       H -1.2069085120560761E+000  7.5939004482549812E+000 -5.8492603827855012E+000
       O -2.8311869545146012E-001  7.5350230715441056E+000 -6.2225445100275296E+000
       H  1.3800841453349049E+001  8.1425817308916439E+000  8.1519333250211794E+000
       H  1.2904743494282709E+001  9.2786289016530681E+000  8.0506796143864747E+000
       O  1.3848333768224279E+001  9.0711591830991534E+000  7.9318095243791813E+000
       H  3.2365962430202564E+000  9.6932492994009518E+000  3.1610434769998150E+000
       H  1.7730589644519770E+000  9.1662237765965635E+000  2.7004551517017719E+000
       O  2.2441425332999816E+000  9.8734290731158580E+000  3.0843778337984085E+000
       H  1.0820617696147821E+001  1.6136203576966786E+001 -6.0012058582205174E+000
       H  1.0925780058877704E+001  1.5053348561431077E+001 -6.8748402085457831E+000
       O  1.1404283856739751E+001  1.5876287196521789E+001 -6.7309975556555743E+000
       H  1.5032084862034861E+001  1.7135645045709470E+001  1.3659644936516205E+001
       H  1.6236204801335827E+001  1.7555197383308286E+001  1.4639950644438056E+001
       O  1.5344524879321261E+001  1.7817401944487660E+001  1.4248525615729189E+001
       H  6.2807564526654396E+000 -5.0412791186639305E+000 -1.2185288561572124E+001
       H  5.5768896543720485E+000 -4.9314223881878450E+000 -1.0731020480134994E+001
       O  6.0940908048353117E+000 -4.4346005128595571E+000 -1.1419537800690543E+001
       H  4.3561926527760768E+000  1.1651095849042717E+001  5.8901056501190237E+000
       H  5.5767267113132384E+000  1.0641368324790765E+001  5.8456808031094161E+000
       O  5.2262041597859890E+000  1.1447866223538570E+001  5.4361564865507894E+000
       H  1.3183402928836756E+001  6.4699349709505585E+000  1.0181210547670869E+001
       H  1.2117608862726444E+001  7.0445666512530138E+000  1.1139327577953434E+001
       O  1.2531295645292449E+001  7.2540430062401633E+000  1.0276947657733805E+001
       H  1.6227893798641377E+000  2.3730797284424696E+000 -6.2587995012829536E+000
       H  5.6108228098405888E-001  1.7329838581086181E+000 -5.3710809014616618E+000
       O  1.1369262538655720E+000  1.4761318302175905E+000 -6.0853934126850353E+000
       H  3.6502916120384667E+000  1.4118046648574019E+001  7.0229534759106134E+000
       H  3.2412216266414080E+000  1.3005181898290791E+001  8.0982599101430957E+000
       O  3.0479209625486665E+000  1.3926940263634467E+001  7.7968635824758428E+000
       H -6.9975603260697925E+000 -4.9378276784012209E+000  1.7046779948516487E+001
       H -7.3976604742509897E+000 -5.9984048563461014E+000  1.7920433078804791E+001
       O -6.6251008476053448E+000 -5.7115194056741476E+000  1.7402272589830499E+001
       H  1.8242263163807380E+001  2.9757169069906180E+000  1.5099447345959394E+001
       H  1.7857731891964352E+001  1.5406272686117108E+000  1.5131531231354948E+001
       O  1.8219775662486544E+001  2.1937832514815399E+000  1.4497173551420586E+001
       H  1.5431960341073609E+001 -3.6513681634161306E+000  2.8215640063241537E+001
       H  1.5780613084525593E+001 -5.0960497518761345E+000  2.8468929040765545E+001
       O  1.6010357682199317E+001 -4.1842894036699017E+000  2.8713998745352832E+001
       H  1.7938019897352309E+001  1.0871831420744891E+000  1.9774157248427120E+001
       H  1.8641239612583853E+001  2.1679086338390272E+000  2.0750750284058082E+001
       O  1.8132467400488149E+001  1.3350193005518738E+000  2.0698075187878636E+001
       H  9.8856221968624656E+000  2.4217896846819671E+000 -3.8856183981861347E+000
       H  1.0804784221616451E+001  1.7500982732246539E+000 -4.9007428083366440E+000
       O  9.8727965794620456E+000  1.7285606669337656E+000 -4.4993248626314779E+000
       H  9.9296975828308298E+000 -5.6243461255408835E+000 -4.2895574639137131E+000
       H  1.1347437978994934E+001 -5.8703612736836375E+000 -5.0482724473842362E+000
       O  1.0878952538295408E+001 -5.9918114276666365E+000 -4.2120571409363068E+000
       H  3.1932351298156330E+001  1.4954333036235628E+001  1.2233001962714878E+001
       H  3.3469568812484184E+001  1.5215107828997548E+001  1.2121638936327114E+001
       O  3.2791414684591842E+001  1.4872235165740268E+001  1.2712459358700903E+001
       H  1.9225963085877900E+001  8.5649625132601681E+000  8.4498769681071302E+000
       H  1.8933503747523890E+001  8.9306655713969363E+000  6.9202122536285415E+000
       O  1.8786437335381073E+001  9.2095088473469957E+000  7.8332639359423739E+000
       H  7.6639392195046163E+000 -7.0577275775592589E+000  8.2342823010118558E+000
       H  9.0011333731142162E+000 -6.7658513716073019E+000  8.8430987295636889E+000
       O  8.6052042208890409E+000 -7.2298023709076906E+000  8.0911084145827363E+000
       H -5.4811766394828938E+000  6.3188525299161089E+000  4.3789119980167124E+000
       H -4.3458198167533979E+000  7.2981099405018046E+000  4.6584373523864420E+000
       O -5.3053259992821156E+000  7.2506996503369017E+000  4.4800650834010893E+000
       H  1.4400089917422481E+001 -1.3604353956811813E+001 -2.3528788707047128E+000
       H  1.4238286560577786E+001 -1.3507480414244412E+001 -8.1652804556179592E-001