 # Version information for this restart file 
 # current date 2025-03-31 17:47:00.666
 # current working dir /ccc/scratch/cont003/gen2309/sicilana/NPT/128_H2O_4_NaCl_10_wt_673K_1000bar/BATCH_11_MD_T_673_P_1000_steps_1000_dt_0.5_NH2O_128_NaCl_4_abc_17.19_17.19_17.19_wt_9.20
 # Program compiled at                                       2024-10-31 15:04:21
 # Program compiled on                                                 topaze131
 # Program compiled for                                                   x86_64
 # Source code revision number                                                  
 &GLOBAL
   PRINT_LEVEL LOW
   PROJECT_NAME "brines"
   RUN_TYPE MD
   FLUSH_SHOULD_FLUSH T
 &END GLOBAL
 &MOTION
   &MD
     ENSEMBLE NPT_I
     STEPS 1000
     TIMESTEP  4.9999999999999994E-001
     STEP_START_VAL 26300
     TIME_START_VAL  1.3150000000006652E+004
     ECONS_START_VAL -2.4590398713531335E+003
     TEMPERATURE  6.7300000000000011E+002
     &BAROSTAT
       PRESSURE  1.0000000000000000E+003
       TIMECON  9.9999999999999989E+002
       &VELOCITY
           6.3759349043388970E-007
       &END VELOCITY
       &MASS
           4.2836593343398705E+007
       &END MASS
       &THERMOSTAT
         TYPE CSVR
         &CSVR
           TIMECON  9.6755373060191388E+001
           &THERMOSTAT_ENERGY
               9.0509124155294519E-004
           &END THERMOSTAT_ENERGY
           &RNG_INIT
 Wiener process for Thermostat # 1        1 F T F   7.0450833923473510E-01        3704493939.0         832070491.0        1800238389.0        1115309534.0        1529014049.0        3898072970.0             12345.0             12345.0             12345.0             12345.0             12345.0             12345.0             12345.0             12345.0             12345.0             12345.0             12345.0             12345.0
           &END RNG_INIT
         &END CSVR
       &END THERMOSTAT
     &END BAROSTAT
     &THERMOSTAT
       TYPE CSVR
       &CSVR
         TIMECON  9.9999999999999989E+002
         &THERMOSTAT_ENERGY
            -7.8908845378035863E-001
         &END THERMOSTAT_ENERGY
         &RNG_INIT
 Wiener process for Thermostat # 1        1 F T F  -1.8101341802961393E+00        2270689733.0        3528657768.0         628416114.0        3057764557.0        2311362566.0        1573930054.0             12345.0             12345.0             12345.0             12345.0             12345.0             12345.0             12345.0             12345.0             12345.0             12345.0             12345.0             12345.0
         &END RNG_INIT
       &END CSVR
     &END THERMOSTAT
     &AVERAGES T
       &RESTART_AVERAGES
         ITIMES_START 1
         AVECPU  2.3057735749753281E+001
         AVEHUGONIOT  0.0000000000000000E+000
         AVETEMP_BARO  3.0679753547349128E+002
         AVEPOT -2.4597174474489607E+003
         AVEKIN  1.2223120917255270E+000
         AVETEMP  6.5809918225428578E+002
         AVEKIN_QM  0.0000000000000000E+000
         AVETEMP_QM  0.0000000000000000E+000
         AVEVOL  3.8602688067071555E+004
         AVECELL_A  3.3720296491706080E+001
         AVECELL_B  3.3720296491706080E+001
         AVECELL_C  3.3720296491706080E+001
         AVEALPHA  9.0000000000000000E+001
         AVEBETA  9.0000000000000000E+001
         AVEGAMMA  9.0000000000000000E+001
         AVE_ECONS -1.3093491817361055E+002
         AVE_PRESS  3.9013431415591617E+002
         AVE_PXX  3.6477165366478562E+002
       &END RESTART_AVERAGES
     &END AVERAGES
   &END MD
   &PRINT
     &TRAJECTORY SILENT
       FILENAME =brines-1.xyz
       &EACH
         MD 1
       &END EACH
     &END TRAJECTORY
     &CELL SILENT
       FILENAME =brines-1.cell_xyz
       &EACH
         MD 1
       &END EACH
     &END CELL
     &VELOCITIES SILENT
       FILENAME =brines-1.vel
       &EACH
         MD 1
       &END EACH
     &END VELOCITIES
     &FORCES SILENT
       FILENAME =brines-1.force
       &EACH
         MD 1
       &END EACH
     &END FORCES
     &STRESS SILENT
       FILENAME =brines-1.stress
       &EACH
         MD 1
       &END EACH
     &END STRESS
     &RESTART SILENT
       FILENAME =brines-1.restart
       &EACH
         MD 1
       &END EACH
     &END RESTART
     &RESTART_HISTORY SILENT
       &EACH
         MD 50
       &END EACH
     &END RESTART_HISTORY
   &END PRINT
 &END MOTION
 &FORCE_EVAL
   METHOD QS
   STRESS_TENSOR ANALYTICAL
   &DFT
     BASIS_SET_FILE_NAME /ccc/work/cont003/gen2309/sicilana/DATA_CP2K/GTH_BASIS_SETS
     POTENTIAL_FILE_NAME /ccc/work/cont003/gen2309/sicilana/DATA_CP2K/GTH_POTENTIALS
     &SCF
       MAX_SCF 50
       EPS_SCF  9.9999999999999995E-008
       &OT T
         MINIMIZER DIIS
         PRECONDITIONER FULL_SINGLE_INVERSE
       &END OT
       &OUTER_SCF T
         EPS_SCF  9.9999999999999995E-008
         MAX_SCF 50
       &END OUTER_SCF
     &END SCF
     &QS
       EPS_DEFAULT  1.0000000000000000E-014
       EPSFIT  9.9999999999999995E-007
       EPSISO  9.9999999999999998E-013
       EPSRHO0  1.0000000000000000E-008
       QUADRATURE GC_LOG
       EXTRAPOLATION ASPC
       METHOD GAPW
     &END QS
     &MGRID
       NGRIDS 4
       CUTOFF  6.0000000000000000E+002
       REL_CUTOFF  6.0000000000000000E+001
     &END MGRID
     &XC
       DENSITY_CUTOFF  1.0000000000000000E-010
       GRADIENT_CUTOFF  1.0000000000000000E-010
       TAU_CUTOFF  1.0000000000000000E-010
       &XC_FUNCTIONAL NO_SHORTCUT
         &PBE T
           PARAMETRIZATION REVPBE
         &END PBE
       &END XC_FUNCTIONAL
       &VDW_POTENTIAL
         POTENTIAL_TYPE PAIR_POTENTIAL
         &PAIR_POTENTIAL
           R_CUTOFF  1.2000000000000000E+001
           TYPE DFTD3
           PARAMETER_FILE_NAME /ccc/work/cont003/gen2309/sicilana/DATA_CP2K/dftd3.dat
           REFERENCE_FUNCTIONAL "PBE"
           CALCULATE_C9_TERM T
           REFERENCE_C9_TERM T
           VERBOSE_OUTPUT T
           D3_EXCLUDE_KIND 3
         &END PAIR_POTENTIAL
       &END VDW_POTENTIAL
     &END XC
     &REAL_TIME_PROPAGATION
       INITIAL_WFN RT_RESTART
     &END REAL_TIME_PROPAGATION
     &PRINT
       &MO_CUBES SILENT
         WRITE_CUBE F
         NLUMO 10
         NHOMO 2
         &EACH
           MD 200
         &END EACH
       &END MO_CUBES
       &MOMENTS ON
         ADD_LAST NUMERIC
         COMMON_ITERATION_LEVELS 20000
         FILENAME =brines-1.dipoles
         REFERENCE COM
         &EACH
           MD 1
         &END EACH
       &END MOMENTS
     &END PRINT
   &END DFT
   &SUBSYS
     &CELL
       A  1.8936218250501451E+001  0.0000000000000000E+000  0.0000000000000000E+000
       B  0.0000000000000000E+000  1.8936218250501451E+001  0.0000000000000000E+000
       C  0.0000000000000000E+000  0.0000000000000000E+000  1.8936218250501451E+001
       MULTIPLE_UNIT_CELL 1 1 1
     &END CELL
     &COORD
       H  1.0680679322554598E+001  2.2957653762401005E+001  1.0024457882650613E+000
       H  9.7692406521340107E+000  2.3693493679286117E+001  1.9050750272189403E+000
       O  1.0320430881282041E+001  2.2834249501910556E+001  1.9036131216366483E+000
       H  8.2302369095977888E+000 -8.6581123303121146E+000  1.8781290656300651E+000
       H  8.3996862908071677E+000 -9.2567969999501880E+000  3.3032426315078149E+000
       O  7.7834964046193615E+000 -8.6848206510788479E+000  2.7782979418804552E+000
       H -1.0763990391039943E+001  4.7465615891068339E+001  4.7074827721661777E+001
       H -9.2721876725611896E+000  4.7238764941663028E+001  4.6944567346858392E+001
       O -1.0119775694944442E+001  4.6724226747422307E+001  4.7108623024695660E+001
       H  8.6114791666241963E+000  2.3610568940308845E+001  2.3950100708587865E+001
       H  9.2983343423358420E+000  2.2823525483561308E+001  2.2876673976375738E+001
       O  8.5382996875170498E+000  2.3440129880555240E+001  2.2957060474818164E+001
       H -1.0680892558627752E+001  5.8887858597257932E+000  9.4425722937666148E+000
       H -9.9055153613880780E+000  7.1038515012210199E+000  9.8451112233100364E+000
       O -1.0121127453553239E+001  6.2366523413897683E+000  1.0212414250084516E+001
       H  3.2738432036605069E+001  2.8577858030284172E+001 -5.7097989436309078E+000
       H  3.3036176340038629E+001  2.7365294658033747E+001 -6.6440254178638813E+000
       O  3.3014569872212441E+001  2.8371433064863762E+001 -6.5787752559545885E+000
       H -5.2307513477218137E+000  5.3563359247360802E+000  8.8672571876635526E+000
       H -5.0188210601672685E+000  4.6439691824766705E+000  1.0247261915982197E+001
       O -5.6525154743912749E+000  4.8248228425067161E+000  9.5601842566878652E+000
       H  2.4779846778108958E+001 -2.0224879322259492E+000 -2.2357836055133764E+000
       H  2.5142916293154098E+001 -1.1247789975585647E+000 -1.0073304437216564E+000
       O  2.4643063475041419E+001 -1.1106295246841453E+000 -1.8700747271429519E+000
       H  2.1968188154210566E+001  1.3712262251309530E+001  1.5235154755507056E+001
       H  2.1643394610580895E+001  1.3791015780633685E+001  1.3582145629917411E+001
       O  2.1343332211413518E+001  1.4126997348263648E+001  1.4516317516897853E+001
       H  2.3508977653535229E+001 -5.0288634796074005E-001  2.2913478466213235E+001
       H  2.3921636635847225E+001 -1.2967994154395488E+000  2.4232284116030751E+001
       O  2.4204684571210407E+001 -1.0135435642475401E+000  2.3305262538825652E+001
       H  5.3372503439824799E+000  4.2689224891408400E-001 -9.8572978144835979E+000
       H  3.8910367549227836E+000  8.9935456652766199E-001 -1.0233454608880518E+001
       O  4.5654018946350492E+000  3.7177008374940262E-001 -1.0528600738914145E+001
       H  1.2136782395839532E+001  3.2353722072181941E+000  2.2903268694297406E+001
       H  1.1477986311724013E+001  4.4758288114419678E+000  2.2235452396745959E+001
       O  1.1919127477016353E+001  4.1971875421124469E+000  2.3047150777091929E+001
       H  1.7156231562768831E+001  1.3273035628263564E+001  2.8271497628432622E+000
       H  1.7155111345120989E+001  1.4759411861701736E+001  3.2152136343388444E+000
       O  1.6976865349337153E+001  1.3854890851314488E+001  3.5672145622313889E+000
       H  5.7792436615535028E+000 -9.9312550542245113E+000 -1.5960616491306294E+000
       H  6.3781894983433416E+000 -1.1343279566270027E+001 -1.1935480442575321E+000
       O  6.6058298226863386E+000 -1.0357469260296986E+001 -1.4346683714061328E+000
       H  2.9871569764117481E+001  3.6360484529146859E+001  5.1691591883544252E-001
       H  3.0611547571507465E+001  3.6545871171972969E+001 -7.6831826256826918E-001
       O  2.9765886217315739E+001  3.6265189519823799E+001 -4.5645140968923303E-001
       H  1.5315078480197409E+001  2.1642614543072511E+000 -1.0736837148559129E+001
       H  1.3969719182354005E+001  2.7523900216682389E+000 -1.0719791405289588E+001
       O  1.4502763713387486E+001  2.1368772591892178E+000 -1.0182453572721954E+001
       H  2.0016322959911836E+001  3.5248505598452851E-001  5.7215667264113863E+000
       H  1.9996044571501344E+001  6.5306350628950638E-001  7.2100208703947910E+000
       O  2.0011865451867585E+001  1.1076215925264887E+000  6.3303266062262580E+000
       H  9.5117150280750504E+000 -1.1051957257384211E+000  1.7837239562888428E+001
       H  8.7123431478579860E+000 -5.1143547824909964E-002  1.7098111883722868E+001
       O  8.6264794614386258E+000 -9.6259844814798967E-001  1.7336354795949916E+001
       H  4.4174702357342985E+000  1.7804235152494190E+001  7.3640798133421850E+000
       H  5.0275656751772573E+000  1.6430348034826828E+001  6.6311248043201196E+000
       O  4.2293033643590219E+000  1.6956350761082447E+001  6.8135089275812062E+000
       H  2.0401553509399083E+001  2.6439315794801619E+001  1.5480046529983784E+000
       H  2.1059268648081353E+001  2.5750902536746331E+001  2.7718716848097218E+000
       O  2.0155825499857258E+001  2.6004695340770937E+001  2.4577027346477816E+000
       H  1.6275771793467062E+001  1.1560449641550051E+001  2.1063650737117921E+001
       H  1.6223239232833127E+001  1.2088534796607938E+001  1.9643053942039089E+001
       O  1.6830460034785112E+001  1.1924779506441384E+001  2.0388378555661998E+001
       H  1.0516797040226816E+001 -1.1939413061974456E+001  1.7851712333426498E+001
       H  9.1106253331546814E+000 -1.1821312252082132E+001  1.7068518391449121E+001
       O  1.0107890739119963E+001 -1.1651813409175523E+001  1.6985496873859823E+001
       H  2.6496707797190172E+001  1.4513561489387058E+001  2.2797292011069445E+001
       H  2.8113709710218490E+001  1.4376102950993157E+001  2.2983127057506742E+001
       O  2.7310704372155964E+001  1.4639509895293045E+001  2.3452500683359442E+001
       H -1.7739428568250151E+001  8.1383460047898897E+000  1.4895958264905774E+001
       H -1.7159374103586220E+001  6.7764202947687595E+000  1.4501462180882536E+001
       O -1.7023458426667862E+001  7.7074201841627863E+000  1.4452229422050578E+001
       H  3.3370323448569982E-003  6.1334980216274220E+000  7.0949242981973084E+000
       H  2.7427697305158782E-001  5.1263752288577766E+000  5.9453501276185312E+000
       O  7.1995809441885183E-001  5.8329925491422889E+000  6.5096227625194185E+000
       H -6.7136821574750591E+000 -1.4672168848923572E+001  1.8389920314703687E+001
       H -7.1269515227743803E+000 -1.6075869016112566E+001  1.8720003175988957E+001
       O -7.5336390278024012E+000 -1.5237248394199392E+001  1.8506228251324583E+001
       H  2.7131122373639222E+001  9.2757920089952677E+000  4.3477051632261604E-001
       H  2.8560153579280271E+001  9.5694411130899901E+000 -1.3332801444811518E-001
       O  2.7850109351907403E+001  9.8985553991104531E+000  3.5291177750200597E-001
       H  1.1506641194242587E+001 -2.1853790713729384E+000  2.5781224270765602E+001
       H  1.2287852333941011E+001 -1.7371718596132073E+000  2.4451211439087828E+001
       O  1.2279655416542273E+001 -2.4468591939651056E+000  2.5190703599353085E+001
       H -6.4314912752564908E+000  7.4825283822063939E+000 -3.4338730533773778E+000
       H -6.3386548259608064E+000  8.9793805339077526E+000 -3.0236057420622591E+000
       O -5.8185793391057565E+000  8.1437311144994862E+000 -3.0128548772136003E+000
       H  7.1759736589194709E+000  4.8478625190017741E+000  1.0728602622399903E+000
       H  7.9226994373364921E+000  5.9638856193889831E+000  1.7063350637759145E+000
       O  8.0148815873319510E+000  5.3025888751944974E+000  9.1562742063534230E-001
       H  1.1603187637290096E+000 -1.8197576610843595E+000  1.8541684577453574E+000
       H  6.1187762635358789E-001 -3.9613071463038679E-001  1.6796596560015935E+000
       O  7.2284845896610828E-001 -1.0640004110627819E+000  2.4287921857050287E+000
       H -3.4978811850611535E+000  2.2141409373453595E+001 -5.8537191246824474E+000
       H -2.2964660319195729E+000  2.2263585056292577E+001 -4.9803786048191609E+000
       O -3.0650559855778061E+000  2.2708106060894668E+001 -5.2066631772993199E+000
       H  2.3363911329181015E+001  2.4692619843580399E+001  1.2969064493222799E+001
       H  2.3931354255105596E+001  2.4980070695405157E+001  1.1406147096422121E+001
       O  2.3349916374473509E+001  2.4366662889705559E+001  1.1979933906418561E+001
       H  3.5359707462041263E+000 -1.9675123060938120E+001 -6.0606794879822319E+000
       H  2.1963903769472819E+000 -1.9428795851296670E+001 -6.8740087009301867E+000
       O  3.1741452087673228E+000 -1.9748741370011587E+001 -6.9329552116205111E+000
       H  8.5351943319018719E+000  3.1306345922233878E+000  1.2540094571373343E+001
       H  7.8445048427699948E+000  3.2275897110788718E+000  1.1159173402598345E+001
       O  7.8890397776471550E+000  2.6639368717207912E+000  1.1927039895974881E+001
       H  1.3566755533195565E+001  2.0704660154041790E+001 -1.7217423471041759E+001
       H  1.3908642543914683E+001  2.0290468324695745E+001 -1.8479390074047334E+001
       O  1.3055928229341452E+001  2.0485234087070740E+001 -1.8007247567704560E+001
       H  1.3972157367797344E+001 -8.5950048268518024E+000 -1.8395032134909236E+001
       H  1.2981153814721687E+001 -7.3885821257230635E+000 -1.8868025117863148E+001
       O  1.3173932297935522E+001 -8.3467741894211045E+000 -1.8875976603971381E+001
       H  1.3305273048177060E+001 -3.1277384150805019E+000  2.9083572389030454E+001
       H  1.3615480098038612E+001 -2.5318591391765164E+000  2.7592201680726429E+001
       O  1.4022663294169963E+001 -2.6370236239358116E+000  2.8481692935479256E+001
       H  2.2124605776251073E+001  5.3594037126966763E+000  1.8270433052192519E+001
       H  2.0856645307572965E+001  5.4929827761134966E+000  1.7468164196461515E+001
       O  2.1465924135941638E+001  6.0128640592472244E+000  1.8055183706655974E+001
       H  1.6115655668588825E+001  2.0187217998510583E+001  1.0814921207759173E+001
       H  1.5288932837718137E+001  2.1350053298216633E+001  1.0330201331957548E+001
       O  1.5790993838699800E+001  2.1083892787044864E+001  1.1118537754570966E+001
       H  3.3223126592031700E+000  2.0086964873543716E+000  4.0084900148119198E+000
       H  2.3208688732063507E+000  1.4942780780529863E+000  3.0769983566538337E+000
       O  3.2961840594796108E+000  1.4182160989058537E+000  3.2475022695606519E+000
       H  1.9864239477990107E+001  2.4016978590917674E+001 -6.3922980604491650E+000
       H  1.8329933341801382E+001  2.3845462353256409E+001 -6.0932887463363574E+000
       O  1.9147134957501585E+001  2.3389141390712396E+001 -6.2323700681993071E+000
       H  2.9849166574518748E+000  3.4488157882811151E+001  1.6021991846292060E+001
       H  3.8828639196519217E+000  3.4915154461418446E+001  1.7192694560219174E+001
       O  3.4365909378377433E+000  3.5294766479307725E+001  1.6505902262882042E+001
       H  1.2721034318547845E+001  1.2383709712115751E+000  1.1820516192771215E+001
       H  1.1996013348474843E+001  2.5792640563802305E+000  1.2027350627081898E+001
       O  1.2192506688857558E+001  1.6916507117920734E+000  1.2509719612941302E+001
       H  1.3634329520135649E+001  1.5245064831999203E+001 -1.5937358777182224E+001
       H  1.3214715046118142E+001  1.5013827748765198E+001 -1.7368606506314258E+001
       O  1.3487066769404858E+001  1.5751263350522992E+001 -1.6767068861368976E+001
       H -1.0498525566834857E+001  1.4977106964866824E+001  7.6119696538073480E+000
       H -9.4607555433557309E+000  1.4508210083002362E+001  6.9354094149058438E+000
       O -9.6108680349863658E+000  1.4801451095449108E+001  7.8250976068537037E+000
       H  9.7486938604488653E+000  3.7022548555058648E+001  1.3923478315903356E+001
       H  9.1997715237048734E+000  3.6148753629773637E+001  1.4994946446651083E+001
       O  9.4486123968189037E+000  3.6117664858079429E+001  1.4006688692726229E+001
       H  6.4953267002044681E+000  5.4164244060403890E+000  1.8078854213817156E+001
       H  5.5799414117262227E+000  5.2614680070654236E+000  1.6768118866711664E+001
       O  5.6606294699245110E+000  5.6750402074214064E+000  1.7664546060954596E+001
       H -1.9359820133586876E+000  1.9736698329249986E+001 -1.0294568373494100E+000
       H -4.2205958231415669E-001  1.9522368353416010E+001 -1.4458620057464764E+000
       O -1.0797163605917512E+000  2.0071018066628991E+001 -1.0642827779175263E+000
       H -6.4344550211562801E+000  1.7265198875373478E+001  2.2515416101494306E+001
       H -6.7807287713341511E+000  1.8808513445944723E+001  2.2678930059361640E+001
       O -6.1393606901973694E+000  1.8095083945717459E+001  2.3037406752466556E+001
       H  1.7838474102991352E+001 -3.6193083408959015E+000  6.4848736714829247E+000
       H  1.8723484139582194E+001 -2.5602002601923255E+000  6.9376284905845251E+000
       O  1.8644722294666170E+001 -3.2200160156061184E+000  6.2255922632558054E+000
       H -3.2178801413287104E+001  4.1991734215879895E+000  2.1808077402093037E+001
       H -3.3152401984138848E+001  3.0179681690826370E+000  2.1648638266839701E+001
       O -3.2506418457110207E+001  3.6255447707733746E+000  2.1109774560488191E+001
       H  8.9749156356609703E+000  9.5944218165501560E+000  1.1650776489132822E+001
       H  1.0036593189216584E+001  1.0212004399040433E+001  1.2591158478967619E+001
       O  9.4130625137473345E+000  1.0434787180696977E+001  1.1922260320293821E+001
       H  1.7895631176704025E+001 -1.6953964339777158E+001  2.2915330529106562E+001
       H  1.7566990211908610E+001 -1.5794115740120880E+001  2.3941574071112509E+001
       O  1.7516935472606004E+001 -1.6050968871542434E+001  2.2940298350483651E+001
       H  6.6476283230305988E-001  1.4988673142822890E+001 -5.4146582322668841E+000
       H  9.0847674302176953E-002  1.6346909150432236E+001 -5.0905827987062553E+000
       O -1.5609462704828420E-001  1.5502420395499099E+001 -5.5777269781718797E+000
       H  1.9346543375674731E+001  9.2901803114592632E+000  1.7022081328118770E+001
       H  1.9462249609965621E+001  1.0334373732729478E+001  1.5804868080982681E+001
       O  1.8863549985745358E+001  9.6375576825814537E+000  1.6203546846898373E+001
       H  3.7761303494976763E+000  9.9174073693185605E+000  2.5801759629452434E+001
       H  3.2081089655352173E+000  8.4716628726487038E+000  2.5537683388688365E+001
       O  2.9015741951063765E+000  9.3288034003780425E+000  2.5673856744396407E+001
       H  3.3222021628301626E+000 -7.8916101572575545E+000 -2.1960507559739728E+000
       H  2.7482360005415791E+000 -6.9168577099984274E+000 -1.2313825450626417E+000
       O  3.3218524114512791E+000 -6.9074879990238713E+000 -2.0650846526198765E+000
       H  4.3588780819751793E+000  7.9841687356437445E+000  1.6623848973463225E+001
       H  3.2877535798233768E+000  8.3416403671132677E+000  1.7715501606365290E+001
       O  4.0125291647130279E+000  8.6892218830305250E+000  1.7259884145364641E+001
       H  6.9255121198435674E+000  2.4256798180672760E+001  3.3270212817622109E+001
       H  6.2381560224061268E+000  2.2868794411600508E+001  3.3320045567724158E+001
       O  6.1461740515399077E+000  2.3780381036559181E+001  3.3550727768574156E+001
       H  8.7192576413972240E+000  3.2395687673860486E+001 -2.3246117044705716E+000
       H  9.8867118782734043E+000  3.3420820683859645E+001 -2.1331088912016014E+000
       O  9.1881654474967203E+000  3.2905885565064821E+001 -1.6745735020854213E+000
       H  2.3701649479518255E-001  9.5493082123826678E+000  1.1397826984283018E+001
       H -3.2786420081882861E-001  1.0752314604346317E+001  1.2081829000237159E+001
       O  3.3735164779029658E-001  1.0503438374968070E+001  1.1469238117325137E+001
       H  1.5015617022646261E+001  1.3782239420810450E+001 -2.0025555406675807E+001
       H  1.6520000558899351E+001  1.3149779334913331E+001 -2.0288393412182675E+001
       O  1.5760622250222831E+001  1.3246736843471355E+001 -1.9621767782393242E+001
       H  1.3996357147796479E+001 -1.8144729355281388E+000  1.5802682589419421E+001
       H  1.2445353825791077E+001 -2.1766599471631531E+000  1.6034608548137857E+001
       O  1.3210503906631292E+001 -1.8042333095315257E+000  1.6483173664202962E+001
       H  1.5039462658075596E+001  7.4718444420440155E+000  2.0859083524309995E+001
       H  1.5783197279431601E+001  8.4905228461703288E+000  2.1570252936357711E+001
       O  1.5350257105062434E+001  8.3478214020487123E+000  2.0800923007034598E+001
       H  2.8498809811047071E+001 -2.2491097701666805E+000  2.1238596578513881E+001
       H  2.8190230004275616E+001 -9.9418598323484053E-001  2.2335446094570205E+001
       O  2.8598128832911662E+001 -1.3183051508061967E+000  2.1511861190236058E+001
       H  2.0333462718404270E+001  1.4955746206978860E+001  1.8593680387161264E+001
       H  1.9401540432092876E+001  1.3646929201563504E+001  1.8549954977143866E+001
       O  2.0343996759549960E+001  1.3984286243685613E+001  1.8624402474959755E+001
       H  1.0301392975603155E+001  6.5411806903805685E+000 -5.1468737361192494E+000
       H  1.0169281725148682E+001  5.3134867078417951E+000 -4.3877699029345036E+000
       O  1.0614293348722470E+001  5.6688791730610193E+000 -5.1692276123665897E+000
       H -2.5123935461750935E+000  1.2013432165362167E+001 -4.3871638842601239E+000
       H -2.8556704964585085E+000  1.3128253811835851E+001 -5.3115274102436825E+000
       O -2.2768468984374963E+000  1.2426940754839565E+001 -5.2413117033346150E+000
       H  7.1193384696670465E+000  8.0029504606193349E+000  1.3130915992368200E+001
       H  7.9717150460774482E+000  7.1824906785896818E+000  1.2102686054985965E+001
       O  7.7637515815008538E+000  7.3239449708716391E+000  1.3047487424740179E+001
       H -1.7501559911992192E+001 -3.4490901326133567E+000  4.0025950671819492E+000
       H -1.5856107738111037E+001 -3.3905177210746378E+000  4.2145364665018104E+000
       O -1.6723093902725349E+001 -3.7194454178318397E+000  4.4955959419769842E+000
       H -3.0047167828944854E-001  8.0829813796926810E+000 -6.3187323234592450E+000
       H -1.2774006181155417E+000  7.5788493603098859E+000 -7.3653084216246985E+000
       O -3.7897101567657943E-001  7.9904257736277708E+000 -7.2814385562370498E+000
       H  1.4057960202778226E+001  8.8889830205302403E+000  8.4679721017946470E+000
       H  1.3944885109410931E+001  1.0397279831178597E+001  8.3087200045125442E+000
       O  1.4256018479709683E+001  9.5765386923801525E+000  7.8588780108725889E+000
       H  2.5046398350090273E+000  1.1009254552513060E+001  3.2644231885204147E+000
       H  1.4335546663060250E+000  9.9596455860687811E+000  3.1313041063984084E+000
       O  2.3398976625297143E+000  1.0146906389154225E+001  2.7796799532730923E+000
       H  1.1356291456128337E+001  1.5687728042685693E+001 -6.1263448056843446E+000
       H  1.2121572577390740E+001  1.4664502927403825E+001 -7.0801124433309273E+000
       O  1.2061215363664074E+001  1.5610664291213540E+001 -6.7500593592485396E+000
       H  1.5497826391164310E+001  1.8402211873206628E+001  1.2960795891466631E+001
       H  1.5906360736024457E+001  1.8725219910160053E+001  1.4308790377203577E+001
       O  1.5108109749588611E+001  1.8513422802251174E+001  1.3845812478736375E+001
       H  6.5374175119125555E+000 -4.7127606198795560E+000 -1.2492344516582806E+001
       H  6.0678001922749072E+000 -4.6107232458496545E+000 -1.1135180625661695E+001
       O  6.5962610449148960E+000 -4.0600301226276274E+000 -1.1753280516209708E+001
       H  4.9699822671838705E+000  1.1288680555370124E+001  7.1047562923679699E+000
       H  5.6187435102633430E+000  1.0989238853753807E+001  5.7092379573280141E+000
       O  5.0019090716515295E+000  1.1618411449819943E+001  6.1503300265887653E+000
       H  1.2726556477003330E+001  6.7296373596960839E+000  1.0187159845459583E+001
       H  1.2019125468983891E+001  7.9406524549264947E+000  9.4512423295912296E+000
       O  1.2255749346940567E+001  7.6312083284094410E+000  1.0316834461620772E+001
       H  1.5057478269231204E+000  2.2263442822558970E+000 -6.8999202048454453E+000
       H  6.1386501411283556E-001  1.7139311735844749E+000 -5.9692993469358306E+000
       O  1.1075068301898587E+000  1.3655118084779057E+000 -6.6810750498629146E+000
       H  2.5577000754398211E+000  1.4177779780420241E+001  6.7546670752280429E+000
       H  2.9644513988900156E+000  1.3346459603618600E+001  8.0768940257073698E+000
       O  2.4439082608366163E+000  1.4133282449724478E+001  7.7301888484498589E+000
       H -7.3329671655372461E+000 -6.6882539003561776E+000  1.8156918326794774E+001
       H -6.2549846965035103E+000 -6.8765288017022961E+000  1.7044858494460485E+001
       O -6.6633640882361309E+000 -6.1964099480505643E+000  1.7601792716878325E+001
       H  1.8299761305570151E+001  2.8072580389597763E+000  1.5754573133262184E+001
       H  1.8298349869786581E+001  1.2958147792746308E+000  1.5372451362391816E+001
       O  1.8345622297719064E+001  2.2052680061935033E+000  1.4967186223440274E+001
       H  1.5639606446218592E+001 -4.2238740166606501E+000  2.8834664580174007E+001
       H  1.7139807541253191E+001 -4.7124581818891826E+000  2.8619446942928896E+001
       O  1.6509633256211767E+001 -4.2353194236963958E+000  2.9165208136510532E+001
       H  1.8346795574724194E+001  1.3972893535727855E+000  1.9372728902169051E+001
       H  1.8848444887478639E+001  2.3817485516353445E+000  2.0682401195242406E+001
       O  1.8776186145403386E+001  1.3927498740563831E+000  2.0290281548471867E+001
       H  1.0312468313412920E+001  2.3918117531951562E+000 -4.1660119208342703E+000
       H  1.0635840087313776E+001  1.4547895747132318E+000 -5.4664106341351486E+000
       O  9.9071747284661100E+000  2.0175317221626563E+000 -5.0711839485018739E+000
       H  1.1270253290060525E+001 -6.1119498709842697E+000 -5.4701366617119760E+000
       H  1.1164136552634726E+001 -5.6025407586365317E+000 -4.0834502664245544E+000
       O  1.0680816958799204E+001 -6.2195835016613277E+000 -4.6020015582169576E+000
       H  3.3008694097745938E+001  1.5449172311064462E+001  1.3143652806890268E+001
       H  3.4430690082108384E+001  1.5398186286609107E+001  1.2645823104446398E+001
       O  3.3859222846279998E+001  1.4923298758977246E+001  1.3204174311121093E+001
       H  1.9294162308809717E+001  9.4915067354175751E+000  8.8023119651091672E+000
       H  1.9807015556686931E+001  8.8824249540296751E+000  7.4464136238570831E+000
       O  1.8989689259547372E+001  8.9607404977921821E+000  8.0336666360715938E+000
       H  8.1727378837207798E+000 -7.1676570367183965E+000  7.7694521021243723E+000
       H  9.1425932634765967E+000 -6.5668604058618429E+000  8.6301809751756764E+000
       O  8.9383363160514584E+000 -7.4533504540588975E+000  8.3129168619568183E+000
       H -5.5442210625750219E+000  6.1990510797061722E+000  4.5533449180142007E+000
       H -4.2810885939815311E+000  6.9125045522099251E+000  5.0688067828506993E+000
       O -5.2028128485996890E+000  7.0790911711419895E+000  4.7804207196618114E+000
       H  1.3527058889760861E+001 -1.5049740346349138E+001 -2.3237670561026356E+000
       H  1.4130977719476467E+001 -1.3456086816200944E+001 -1.8672267082036105E+000