 # Version information for this restart file 
 # current date 2025-03-31 20:43:14.014
 # current working dir /ccc/scratch/cont003/gen2309/sicilana/NPT/128_H2O_4_NaCl_10_wt_673K_1000bar/BATCH_11_MD_T_673_P_1000_steps_1000_dt_0.5_NH2O_128_NaCl_4_abc_17.19_17.19_17.19_wt_9.20
 # Program compiled at                                       2024-10-31 15:04:21
 # Program compiled on                                                 topaze131
 # Program compiled for                                                   x86_64
 # Source code revision number                                                  
 &GLOBAL
   PRINT_LEVEL LOW
   PROJECT_NAME "brines"
   RUN_TYPE MD
   FLUSH_SHOULD_FLUSH T
 &END GLOBAL
 &MOTION
   &MD
     ENSEMBLE NPT_I
     STEPS 1000
     TIMESTEP  4.9999999999999994E-001
     STEP_START_VAL 26600
     TIME_START_VAL  1.3300000000006421E+004
     ECONS_START_VAL -2.4590398713531335E+003
     TEMPERATURE  6.7300000000000011E+002
     &BAROSTAT
       PRESSURE  1.0000000000000000E+003
       TIMECON  9.9999999999999989E+002
       &VELOCITY
           4.4484681340053089E-006
       &END VELOCITY
       &MASS
           4.2836593343398705E+007
       &END MASS
       &THERMOSTAT
         TYPE CSVR
         &CSVR
           TIMECON  9.6755373060191388E+001
           &THERMOSTAT_ENERGY
               1.4723095526905810E-003
           &END THERMOSTAT_ENERGY
           &RNG_INIT
 Wiener process for Thermostat # 1        1 F T F  -4.1005273754923166E-01        3679907806.0        1765798607.0        3772099072.0        3180610041.0         670340211.0        3902316988.0             12345.0             12345.0             12345.0             12345.0             12345.0             12345.0             12345.0             12345.0             12345.0             12345.0             12345.0             12345.0
           &END RNG_INIT
         &END CSVR
       &END THERMOSTAT
     &END BAROSTAT
     &THERMOSTAT
       TYPE CSVR
       &CSVR
         TIMECON  9.9999999999999989E+002
         &THERMOSTAT_ENERGY
            -7.7796047838519145E-001
         &END THERMOSTAT_ENERGY
         &RNG_INIT
 Wiener process for Thermostat # 1        1 F T F   6.4506306071507447E-01         925780904.0        1030513161.0        2146032715.0        3826519477.0        2261541760.0         873381281.0             12345.0             12345.0             12345.0             12345.0             12345.0             12345.0             12345.0             12345.0             12345.0             12345.0             12345.0             12345.0
         &END RNG_INIT
       &END CSVR
     &END THERMOSTAT
     &AVERAGES T
       &RESTART_AVERAGES
         ITIMES_START 1
         AVECPU  2.3195176338222197E+001
         AVEHUGONIOT  0.0000000000000000E+000
         AVETEMP_BARO  3.0681622480622735E+002
         AVEPOT -2.4597209142883548E+003
         AVEKIN  1.2216896854170007E+000
         AVETEMP  6.5776407546327664E+002
         AVEKIN_QM  0.0000000000000000E+000
         AVETEMP_QM  0.0000000000000000E+000
         AVEVOL  3.8667135316975851E+004
         AVECELL_A  3.3739088139561851E+001
         AVECELL_B  3.3739088139561851E+001
         AVECELL_C  3.3739088139561851E+001
         AVEALPHA  9.0000000000000000E+001
         AVEBETA  9.0000000000000000E+001
         AVEGAMMA  9.0000000000000000E+001
         AVE_ECONS -1.3359398986350919E+002
         AVE_PRESS  3.9715396315850609E+002
         AVE_PXX  3.7577108098946650E+002
       &END RESTART_AVERAGES
     &END AVERAGES
   &END MD
   &PRINT
     &TRAJECTORY SILENT
       FILENAME =brines-1.xyz
       &EACH
         MD 1
       &END EACH
     &END TRAJECTORY
     &CELL SILENT
       FILENAME =brines-1.cell_xyz
       &EACH
         MD 1
       &END EACH
     &END CELL
     &VELOCITIES SILENT
       FILENAME =brines-1.vel
       &EACH
         MD 1
       &END EACH
     &END VELOCITIES
     &FORCES SILENT
       FILENAME =brines-1.force
       &EACH
         MD 1
       &END EACH
     &END FORCES
     &STRESS SILENT
       FILENAME =brines-1.stress
       &EACH
         MD 1
       &END EACH
     &END STRESS
     &RESTART SILENT
       FILENAME =brines-1.restart
       &EACH
         MD 1
       &END EACH
     &END RESTART
     &RESTART_HISTORY SILENT
       &EACH
         MD 50
       &END EACH
     &END RESTART_HISTORY
   &END PRINT
 &END MOTION
 &FORCE_EVAL
   METHOD QS
   STRESS_TENSOR ANALYTICAL
   &DFT
     BASIS_SET_FILE_NAME /ccc/work/cont003/gen2309/sicilana/DATA_CP2K/GTH_BASIS_SETS
     POTENTIAL_FILE_NAME /ccc/work/cont003/gen2309/sicilana/DATA_CP2K/GTH_POTENTIALS
     &SCF
       MAX_SCF 50
       EPS_SCF  9.9999999999999995E-008
       &OT T
         MINIMIZER DIIS
         PRECONDITIONER FULL_SINGLE_INVERSE
       &END OT
       &OUTER_SCF T
         EPS_SCF  9.9999999999999995E-008
         MAX_SCF 50
       &END OUTER_SCF
     &END SCF
     &QS
       EPS_DEFAULT  1.0000000000000000E-014
       EPSFIT  9.9999999999999995E-007
       EPSISO  9.9999999999999998E-013
       EPSRHO0  1.0000000000000000E-008
       QUADRATURE GC_LOG
       EXTRAPOLATION ASPC
       METHOD GAPW
     &END QS
     &MGRID
       NGRIDS 4
       CUTOFF  6.0000000000000000E+002
       REL_CUTOFF  6.0000000000000000E+001
     &END MGRID
     &XC
       DENSITY_CUTOFF  1.0000000000000000E-010
       GRADIENT_CUTOFF  1.0000000000000000E-010
       TAU_CUTOFF  1.0000000000000000E-010
       &XC_FUNCTIONAL NO_SHORTCUT
         &PBE T
           PARAMETRIZATION REVPBE
         &END PBE
       &END XC_FUNCTIONAL
       &VDW_POTENTIAL
         POTENTIAL_TYPE PAIR_POTENTIAL
         &PAIR_POTENTIAL
           R_CUTOFF  1.2000000000000000E+001
           TYPE DFTD3
           PARAMETER_FILE_NAME /ccc/work/cont003/gen2309/sicilana/DATA_CP2K/dftd3.dat
           REFERENCE_FUNCTIONAL "PBE"
           CALCULATE_C9_TERM T
           REFERENCE_C9_TERM T
           VERBOSE_OUTPUT T
           D3_EXCLUDE_KIND 3
         &END PAIR_POTENTIAL
       &END VDW_POTENTIAL
     &END XC
     &REAL_TIME_PROPAGATION
       INITIAL_WFN RT_RESTART
     &END REAL_TIME_PROPAGATION
     &PRINT
       &MO_CUBES SILENT
         WRITE_CUBE F
         NLUMO 10
         NHOMO 2
         &EACH
           MD 200
         &END EACH
       &END MO_CUBES
       &MOMENTS ON
         ADD_LAST NUMERIC
         COMMON_ITERATION_LEVELS 20000
         FILENAME =brines-1.dipoles
         REFERENCE COM
         &EACH
           MD 1
         &END EACH
       &END MOMENTS
     &END PRINT
   &END DFT
   &SUBSYS
     &CELL
       A  1.8689282577721684E+001  0.0000000000000000E+000  0.0000000000000000E+000
       B  0.0000000000000000E+000  1.8689282577721684E+001  0.0000000000000000E+000
       C  0.0000000000000000E+000  0.0000000000000000E+000  1.8689282577721684E+001
       MULTIPLE_UNIT_CELL 1 1 1
     &END CELL
     &COORD
       H  1.1302536204642605E+001  2.2359240641315317E+001  1.9649823028679994E+000
       H  1.2279800430361377E+001  2.1154951351565543E+001  2.2812506369770156E+000
       O  1.1896597561528065E+001  2.1964567327110601E+001  2.5955779081929391E+000
       H  8.1947033658957782E+000 -8.6322653387880646E+000  3.1098693404506976E+000
       H  7.0687058087132577E+000 -9.4300942376927281E+000  2.5600338511837606E+000
       O  7.1575281468285183E+000 -8.7108133138360344E+000  3.1630655957009042E+000
       H -1.0372669139853542E+001  4.6950726998447280E+001  4.6537452454014122E+001
       H -9.5633022587114702E+000  4.5852496488431363E+001  4.5651056149088717E+001
       O -9.7831165439775933E+000  4.6186347465764399E+001  4.6569418083913042E+001
       H  8.3112718133439767E+000  2.4665547152094916E+001  2.3407625073474332E+001
       H  8.9237255960263795E+000  2.3315470758080711E+001  2.2965737059294064E+001
       O  8.1251344414989966E+000  2.3733477599146113E+001  2.3184705094257183E+001
       H -1.2184544873062368E+001  4.9611381818627747E+000  8.5527600265545694E+000
       H -1.1840079392219740E+001  6.1957651825860891E+000  9.2138194104828504E+000
       O -1.1921495668832094E+001  5.2185750264640767E+000  9.4431552900683613E+000
       H  3.3535094206502343E+001  2.7935243669470232E+001 -6.2068770235852329E+000
       H  3.2737278143257349E+001  2.6919887274063502E+001 -6.9784339046046249E+000
       O  3.3530408969375742E+001  2.7027055624248874E+001 -6.4214208085358839E+000
       H -5.4029532504978190E+000  4.4316026388009746E+000  8.9597602321054719E+000
       H -4.4906322704735926E+000  3.9802370273920733E+000  1.0134379792110279E+001
       O -5.4368541461584288E+000  3.8075820762157546E+000  9.7404667495531356E+000
       H  2.4759907335858298E+001 -1.7057921160535934E+000 -4.4659202784491221E+000
       H  2.5100416121697659E+001 -6.1249496840695639E-001 -3.3136415084951323E+000
       O  2.4607056405363519E+001 -7.6249506781793752E-001 -4.1624982083053821E+000
       H  2.0900440058655658E+001  1.2210357611948286E+001  1.4617807997134522E+001
       H  2.1537755906634388E+001  1.3268415220224444E+001  1.3587692619158114E+001
       O  2.0757357739516024E+001  1.3036649184694427E+001  1.4195295209700481E+001
       H  2.3556018794119552E+001 -1.4123357385308517E+000  2.2889043030557495E+001
       H  2.4902312548263080E+001 -1.7772727460192763E+000  2.3453459584115190E+001
       O  2.4308736441325042E+001 -9.8330089343675309E-001  2.3443516298150154E+001
       H  3.5566509142031437E+000  1.3959432276604420E+000 -1.0450240939975842E+001
       H  3.0321047379780541E+000  1.4677778335155296E+000 -1.1938802612654207E+001
       O  3.4064049857157244E+000  7.7734568797941761E-001 -1.1185098523870606E+001
       H  1.3183845297758907E+001  5.4507351419506751E+000  2.4844537563062826E+001
       H  1.2440019391076101E+001  4.3847071460146143E+000  2.4163697513138960E+001
       O  1.2270905635015437E+001  5.2761525473464674E+000  2.4419437523802451E+001
       H  1.7334743906899785E+001  1.3794962023366352E+001  3.9573285406317953E+000
       H  1.6194230470689856E+001  1.2951893168026837E+001  3.5398616838311510E+000
       O  1.6707692726144028E+001  1.3740322174709727E+001  3.2600815433265047E+000
       H  7.6755963580296651E+000 -9.8743094051934861E+000 -1.5279610660006788E+000
       H  6.9313149641969112E+000 -1.1125396719924838E+001 -1.3049228621162920E+000
       O  7.8179881988492337E+000 -1.0790857308138126E+001 -1.1022184324295072E+000
       H  3.0186401140775409E+001  3.6957285011059966E+001 -1.1766497653391024E+000
       H  3.0342562242147238E+001  3.7536210661610198E+001  2.0792267587691901E-001
       O  2.9863866939214070E+001  3.6840787712252393E+001 -2.6947178517335169E-001
       H  1.5455616788385049E+001  2.6982276693282161E+000 -1.1024448160483018E+001
       H  1.4414611711756029E+001  2.5302931474179906E+000 -9.7998988338437520E+000
       O  1.4884832524276778E+001  2.0766544139614429E+000 -1.0575159455515230E+001
       H  1.9061394440709037E+001  1.1373997263271465E+000  5.3383123221683988E+000
       H  1.9776590969261800E+001  6.1218478175684354E-001  6.5760114686941424E+000
       O  1.9853539959909234E+001  6.7748599438094637E-001  5.6111368583371632E+000
       H  8.6317378685562733E+000  1.0069382680325303E+000  1.7279239874202958E+001
       H  8.6622181601618617E+000  1.0711601933141905E+000  1.5687110097574902E+001
       O  8.1820458579896336E+000  6.9039653810323220E-001  1.6486286016007146E+001
       H  5.3251132395274929E+000  1.7257955771780303E+001  7.0806862059346605E+000
       H  5.3642106645836805E+000  1.5763124348013411E+001  7.4712577645036298E+000
       O  5.0790860865758587E+000  1.6627775959919006E+001  7.8099229905735124E+000
       H  1.8395234340287008E+001  2.6161473442347589E+001  1.6046202082024070E+000
       H  1.9724058560011866E+001  2.6258285304310196E+001  1.1625667650949143E+000
       O  1.9170041166789300E+001  2.6608761371308706E+001  1.9143838538767655E+000
       H  1.6160223133653322E+001  1.2585399816830313E+001  2.0125932734923722E+001
       H  1.5384002960394056E+001  1.2554866352016163E+001  1.8823368466787869E+001
       O  1.5845989676311799E+001  1.1953861918756909E+001  1.9436213780582708E+001
       H  1.1085151360330324E+001 -1.1378610903443784E+001  1.6665046220670543E+001
       H  9.7213845414507603E+000 -1.0735363916439157E+001  1.6426281257596976E+001
       O  1.0504164011704221E+001 -1.1092964427212269E+001  1.5906853457391188E+001
       H  2.5520432081721260E+001  1.4775037159054364E+001  2.1996170178604217E+001
       H  2.4582757096114968E+001  1.4591514118042891E+001  2.3118941852641022E+001
       O  2.5488051879201208E+001  1.4653469679740683E+001  2.2984536292556445E+001
       H -1.5647327798971904E+001  7.5162960925548870E+000  1.4090377465193743E+001
       H -1.6817947240562802E+001  6.6683904070950621E+000  1.3817987603542203E+001
       O -1.6370487940435410E+001  7.1032874881839865E+000  1.4566151890691469E+001
       H -9.2928467794315062E-001  5.9086816544099436E+000  6.2406234829163756E+000
       H  5.5245837837637690E-001  6.1009554389797520E+000  6.7635739264253898E+000
       O -3.6779979421817662E-002  5.6476821765435279E+000  6.1098362911015478E+000
       H -6.2859936708748760E+000 -1.5500935218431477E+001  1.7633025782785957E+001
       H -6.6057407272288797E+000 -1.6962942850598349E+001  1.7109888599233237E+001
       O -6.6717632285471868E+000 -1.6335680307104560E+001  1.7873012981644344E+001
       H  2.8017116199270674E+001  8.6429772194361707E+000  8.1338120163435601E-001
       H  2.8870089120514585E+001  9.1242126147153133E+000  1.9125421806612002E+000
       O  2.8279153999002027E+001  9.5160112649662452E+000  1.1115375461694876E+000
       H  1.2032089004289224E+001 -1.8897067327747845E+000  2.5903960414812392E+001
       H  1.0898060110480849E+001 -1.0782649527485095E+000  2.4956621841874210E+001
       O  1.1423353524842117E+001 -1.9499021085787043E+000  2.5208834780645116E+001
       H -3.3895124036881583E+000  7.0041273617990818E+000 -4.4571122017715163E+000
       H -4.7016377340577478E+000  7.5681604811012217E+000 -4.4184350336461931E+000
       O -4.1421847302989381E+000  7.0651146733050192E+000 -3.8477007575001889E+000
       H  6.6365642814105685E+000  5.1272575065009205E+000  1.9946165027894609E+000
       H  6.9811375957137924E+000  6.5375739247956526E+000  1.3298615276946295E+000
       O  6.3283061483461198E+000  5.9010498493838384E+000  1.5511070881659128E+000
       H  1.1177856479461032E+000 -1.1705398758746546E+000  3.0888275428801260E+000
       H -2.3097609046814996E-001 -8.5761400298918977E-001  2.9967683717913878E+000
       O  3.5730621667619356E-001 -1.6511672903304100E+000  2.8894250826783576E+000
       H -1.9229800972744358E+000  2.4095403703138174E+001 -4.5236237656107559E+000
       H -2.1862368946192254E+000  2.2657339730158732E+001 -4.4938444343279071E+000
       O -2.4281016439097098E+000  2.3438991730568308E+001 -4.9871918906247190E+000
       H  2.2627008853011372E+001  2.2893143231560970E+001  1.1804532405533688E+001
       H  2.3770260797410231E+001  2.2017601188000818E+001  1.2138298867276257E+001
       O  2.2992529237359211E+001  2.2383149872444701E+001  1.2497743785819617E+001
       H  2.3624672872308019E+000 -2.0130644310381168E+001 -6.7970399244737241E+000
       H  3.3715082467591171E+000 -1.9578097091913467E+001 -7.7520166928974650E+000
       O  2.9890919758984809E+000 -2.0444678524508713E+001 -7.4254294715722056E+000
       H  7.2770969275349771E+000  1.3249331139666836E+000  1.3057042791041045E+001
       H  7.8271689120243293E+000  2.7073253314159076E+000  1.2980097423029710E+001
       O  7.0137445331920993E+000  2.2725942461697586E+000  1.3137374814339143E+001
       H  1.4459351001123432E+001  1.9521748449356547E+001 -1.6285833648194771E+001
       H  1.4561773279851860E+001  2.0793673571904360E+001 -1.6992098989890120E+001
       O  1.4375881297549263E+001  1.9887018836396205E+001 -1.7257243694100922E+001
       H  1.2893805568733088E+001 -9.2407787333107283E+000 -1.9209171523719018E+001
       H  1.3563939707543128E+001 -9.4738418419402510E+000 -2.0665469811685689E+001
       O  1.3422292024875794E+001 -9.8245977918444485E+000 -1.9826363130937821E+001
       H  1.3958289170423104E+001 -1.1335394024001988E+000  2.7986527184334424E+001
       H  1.3097176429160944E+001 -2.1292314936466705E+000  2.8735609544403623E+001
       O  1.3647471246993046E+001 -2.0293393967403532E+000  2.8002109705381226E+001
       H  2.1977531458544718E+001  5.6992885505183288E+000  1.8775691734667468E+001
       H  2.0686808433547402E+001  5.2203283642993776E+000  1.9475558597977180E+001
       O  2.1275640702560590E+001  6.0410343885079838E+000  1.9429631709281995E+001
       H  1.6047958502568697E+001  2.1309090559973402E+001  1.1037250869280323E+001
       H  1.6075208491377168E+001  2.0263048220055328E+001  9.9106161860234820E+000
       O  1.6255512192159674E+001  2.0374402588954034E+001  1.0834969759152152E+001
       H  2.7633498441780824E+000  9.0484322226717229E-001  4.1361366171651195E+000
       H  3.8202565200150334E+000  1.1083390270480853E+000  2.9613846729668363E+000
       O  2.9011840422915878E+000  9.6027721064610949E-001  3.2043621410237759E+000
       H  1.8809429574805709E+001  2.3318902990546068E+001 -5.9810704832121599E+000
       H  2.0031004899701195E+001  2.2501458641345334E+001 -5.8576251085829174E+000
       O  1.9734293529465639E+001  2.3410472313272265E+001 -5.9270650160217624E+000
       H  2.5331999299183536E+000  3.3217945806864300E+001  1.5782903192280232E+001
       H  3.5653763038523802E+000  3.3624512801309869E+001  1.6933092210971335E+001
       O  2.8533594722529361E+000  3.3924683897214670E+001  1.6241195940731998E+001
       H  1.2255557291971583E+001  2.5150067196974364E+000  1.1825442419360931E+001
       H  1.3302708104108294E+001  3.3516204398097198E+000  1.2564680572689836E+001
       O  1.2897419721250257E+001  2.4904986791522217E+000  1.2496990625746843E+001
       H  1.4718809312973020E+001  1.5685256745512612E+001 -1.5898588427765770E+001
       H  1.4590068184288832E+001  1.5171501675400926E+001 -1.7363430889300886E+001
       O  1.4254214417514666E+001  1.5042469775995309E+001 -1.6410092733704658E+001
       H -9.8329473832111081E+000  1.5338711466376239E+001  7.7345154715728279E+000
       H -8.2769246638055893E+000  1.5525578160615543E+001  7.6429260256124572E+000
       O -9.0001967840234105E+000  1.4909304683823066E+001  8.0422826283667685E+000
       H  9.3410768615821542E+000  3.7009483097701178E+001  1.3949987150890092E+001
       H  8.2755533025233934E+000  3.6290353876300458E+001  1.3060071996575646E+001
       O  9.1211202706470260E+000  3.6794865662923556E+001  1.3063096766550952E+001
       H  5.5799196434065506E+000  6.0616077279519018E+000  1.8269995070721595E+001
       H  5.4519023957216159E+000  5.7671968487666803E+000  1.6704786623117688E+001
       O  5.3444734078931031E+000  6.4132904695979009E+000  1.7421803766636856E+001
       H -2.5327696708644161E+000  1.8787306957715113E+001 -1.4144924218300448E+000
       H -9.7078179612725990E-001  1.8947216361816761E+001 -1.0597417487908982E+000
       O -1.8433098289196577E+000  1.9411255789746676E+001 -1.0076293186872751E+000
       H -5.7163711374444404E+000  1.7250755703067838E+001  2.1015740240420779E+001
       H -7.0174535013499906E+000  1.6679797951171782E+001  2.1704785199108471E+001
       O -6.4082951808266753E+000  1.7471034621581776E+001  2.1693354935783443E+001
       H  1.7554317010461787E+001 -2.1653545145184636E+000  5.5052992378695489E+000
       H  1.7979356625285000E+001 -1.7400239757978881E+000  6.9213818540664107E+000
       O  1.7518725624401362E+001 -2.4321909374570301E+000  6.4137051461859569E+000
       H -3.0810197631756918E+001  1.3876849735027774E+000  2.0522051162863111E+001
       H -3.1575453706687057E+001  2.1227401490508275E+000  2.1570966408897778E+001
       O -3.1191254998469304E+001  2.2205506527918852E+000  2.0707717583890457E+001
       H  9.7507243610140684E+000  9.1668365306931268E+000  1.1493051427294009E+001
       H  1.0367222196249431E+001  9.5081442845548700E+000  1.2818768665223072E+001
       O  9.4777673367237956E+000  9.5148171442762148E+000  1.2390058297841996E+001
       H  1.6862513802102960E+001 -1.5873217572505121E+001  2.2058787724944139E+001
       H  1.6800580598574232E+001 -1.4484285090181949E+001  2.2800143461667972E+001
       O  1.6297385175046173E+001 -1.5328156107865695E+001  2.2731883656306476E+001
       H  4.1095056664417468E-001  1.4584015411293988E+001 -5.0952431216709488E+000
       H  2.8373306611699012E-001  1.6080011904975148E+001 -5.0147650951648615E+000
       O  5.2530294859766324E-001  1.5378629711733540E+001 -5.6400968096974857E+000
       H  1.9560763529508492E+001  8.6717479495797036E+000  1.7742487344189044E+001
       H  1.9830298956538218E+001  7.8998987315750648E+000  1.6398047732331833E+001
       O  1.9206475920094825E+001  8.4077693777697267E+000  1.6854832223628438E+001
       H  3.0100896790130558E+000  1.0288339280626378E+001  2.6178871918083424E+001
       H  3.7526401312059439E+000  9.6878657249943618E+000  2.5046746903550350E+001
       O  2.8237539044366686E+000  9.9056991870047231E+000  2.5348239137116771E+001
       H  3.3469975653000312E+000 -7.9869675948706851E+000 -2.6524048652879872E+000
       H  2.4402856534177024E+000 -7.5799602743337999E+000 -1.3905592431753786E+000
       O  3.1098122556225931E+000 -7.2989732444047810E+000 -2.0063630309785689E+000
       H  4.6139708417021703E+000  8.2942628768762887E+000  1.5530979603428165E+001
       H  4.0538779875502655E+000  9.0150573799316831E+000  1.6972300040931213E+001
       O  4.0447478010444184E+000  8.9211632584399947E+000  1.5928678130682586E+001
       H  5.9915054214709826E+000  2.4990740437101252E+001  3.3191321761885646E+001
       H  5.5394258719725400E+000  2.3573495842564260E+001  3.2997408674259084E+001
       O  5.9732133902086577E+000  2.4141257812114063E+001  3.3645601721394648E+001
       H  8.8842054643882840E+000  3.3394469232082827E+001 -1.8698428933943469E+000
       H  8.6636603897675553E+000  3.4240626923366108E+001 -6.5336249251156642E-001
       O  9.1120692610440575E+000  3.3424639132947497E+001 -9.5028455191740546E-001
       H  4.5216927154109665E-001  1.0079089275428176E+001  1.1618354718020834E+001
       H  1.0581137316921763E+000  1.1284170897388250E+001  1.0939725468116762E+001
       O  2.6812338460492008E-001  1.0724400658218185E+001  1.0896661062704320E+001
       H  1.3940493030832179E+001  1.3556349474827906E+001 -1.9805995037713920E+001
       H  1.5114966664360640E+001  1.3712504567719048E+001 -2.0736440678141985E+001
       O  1.4973759332183390E+001  1.3737683466690401E+001 -1.9831709394167660E+001
       H  1.3427545935977836E+001 -2.5415492072307302E+000  1.5895061131314149E+001
       H  1.3345369054454695E+001 -2.2166984883969598E+000  1.7255171800084341E+001
       O  1.3133411602447058E+001 -1.8442682833242594E+000  1.6437158658815960E+001
       H  1.5267731281680108E+001  1.0235865837236394E+001  2.0269254600814893E+001
       H  1.6607085156629051E+001  9.7335697358797137E+000  2.0628932323517979E+001
       O  1.5634742749968304E+001  9.5330892892620192E+000  2.0833936698320759E+001
       H  2.8477245977675317E+001 -1.1051972467999154E+000  1.9659820910238317E+001
       H  2.9074250286926599E+001 -8.0871202772572592E-001  2.0916988433362022E+001
       O  2.8204081608137255E+001 -1.2438202717373250E+000  2.0599990823103102E+001
       H  2.0398858764622339E+001  1.4550645645757122E+001  2.0673687487907149E+001
       H  1.9720909148592831E+001  1.5822519347901789E+001  2.0305696228215979E+001
       O  1.9944973051981240E+001  1.4963320920981028E+001  1.9941482045280875E+001
       H  1.0735427875719706E+001  6.6479438449843453E+000 -4.6289742011216051E+000
       H  1.1239819341443823E+001  5.3224724717049625E+000 -3.9285438428415480E+000
       O  1.1263571724211914E+001  5.8302491058025891E+000 -4.7729340980332964E+000
       H -2.0605593477316444E+000  1.2802531443330816E+001 -4.4577378261943688E+000
       H -2.9025534968809610E+000  1.3687457465834012E+001 -5.4622736942521239E+000
       O -2.9398200267933130E+000  1.2832856402740243E+001 -4.9653580756710509E+000
       H  7.7370013342367061E+000  7.9809118575108275E+000  1.3768135083453508E+001
       H  6.5099950695306426E+000  8.7482434621966565E+000  1.3537948871333398E+001
       O  6.7898504227907797E+000  7.9609834326179376E+000  1.4075288881029396E+001
       H -1.6439765850433805E+001 -4.2861006713701117E+000  5.5108336378067495E+000
       H -1.7505321831885524E+001 -3.1874018818365237E+000  5.0564284107514599E+000
       O -1.6841557617009585E+001 -3.9003738252962199E+000  4.6514958416758896E+000
       H -1.6440755796707660E-001  8.1693796957663167E+000 -4.9008456334144475E+000
       H -1.2100166141703466E+000  7.5926576093834823E+000 -5.5905967600132485E+000
       O -3.6118364055128666E-001  7.9114682107344603E+000 -5.7932601677710300E+000
       H  1.3881593871986285E+001  7.4639070785750805E+000  7.3825852796387395E+000
       H  1.2707663478337588E+001  8.4314558890831535E+000  7.7536313462295094E+000
       O  1.3672348611559554E+001  8.3888550578081951E+000  7.6380765816867617E+000
       H  2.4937819364168159E+000  1.1148331660522578E+001  3.0856238972592553E+000
       H  2.8182804006844471E+000  9.8616922197172681E+000  2.8535156681851732E+000
       O  2.4378459314179470E+000  1.0399139909108287E+001  3.6092921022360729E+000
       H  1.0727517617420078E+001  1.6980434091667174E+001 -6.2424788566553771E+000
       H  1.0177571718389958E+001  1.5774013273689283E+001 -6.9395006536432042E+000
       O  1.0970366588473510E+001  1.6282527618971756E+001 -6.8849258486195861E+000
       H  1.5995301714077309E+001  1.7450340631092626E+001  1.4042623122395000E+001
       H  1.6801667035228533E+001  1.7312474157422017E+001  1.5384650504743281E+001
       O  1.5867895991349890E+001  1.7359870019261063E+001  1.5068157681942452E+001
       H  5.8805850368349910E+000 -5.8098397102680437E+000 -1.2108667054469381E+001
       H  5.6240751406045613E+000 -5.6673374473003690E+000 -1.0551061621458320E+001
       O  5.9986941355401013E+000 -5.1785255504034460E+000 -1.1345921826630233E+001
       H  5.5352995346431735E+000  1.1279505828216729E+001  4.4681914968190943E+000
       H  5.6302792565894224E+000  1.2737070837444939E+001  4.0655633271692384E+000
       O  5.2374765987654950E+000  1.2164700908964655E+001  4.7554825189781189E+000
       H  1.2903791846598606E+001  7.0173991540620895E+000  1.0017818730363505E+001
       H  1.2145903244723792E+001  6.0552654812084725E+000  1.0953540795570143E+001
       O  1.2119691857595397E+001  7.0355625731394440E+000  1.0609077258761051E+001
       H  2.0950036771633540E+000  9.8770067458312649E-001 -7.1698679211892351E+000
       H  1.3939315805148540E+000  1.4583177253683897E+000 -5.7372034830281891E+000
       O  2.1067090236339778E+000  1.5269460062319051E+000 -6.3902501619583258E+000
       H  3.9517355331510404E+000  1.3937789710485971E+001  7.9057273528224856E+000
       H  2.6917728293218053E+000  1.3282812391325807E+001  8.5224776198197905E+000
       O  2.9886358488529163E+000  1.4127259452989463E+001  8.0687254391438366E+000
       H -6.7517124436207911E+000 -5.6162929394417676E+000  1.6803913878195722E+001
       H -7.0720729668018469E+000 -4.6897504465484445E+000  1.7974884108117511E+001
       O -6.3362208416304320E+000 -5.1898391678719804E+000  1.7600079759976047E+001
       H  1.8118373263485619E+001  2.5772050849322024E+000  1.5527754836613873E+001
       H  1.7196830847240030E+001  1.5071942101347842E+000  1.5084892944484279E+001
       O  1.7645669217331992E+001  2.2687863714252736E+000  1.4776534382587924E+001
       H  1.5173154637343405E+001 -3.4209830187200194E+000  2.8516933650372664E+001
       H  1.5078590701123254E+001 -4.8017376144487418E+000  2.8446672539461243E+001
       O  1.5562165881557330E+001 -4.1415608268512605E+000  2.8983179025170351E+001
       H  1.7265752889610404E+001  1.0433705963889033E+000  2.0063502685445606E+001
       H  1.8576301029225458E+001  1.4065477678774938E+000  2.0403260285076549E+001
       O  1.7793470826514287E+001  1.2545160040385186E+000  2.0843824908066718E+001
       H  1.0401414238531563E+001  2.6282357310020465E+000 -3.4626359856627094E+000
       H  1.1101410000367801E+001  1.6144210906711325E+000 -4.4005020825787922E+000
       O  1.0260867232923124E+001  1.7532438980643577E+000 -3.8916258826248593E+000
       H  1.0042350292749019E+001 -5.5793214005979985E+000 -4.5860802419522004E+000
       H  1.1462833496229457E+001 -5.8796778480534604E+000 -4.7628825228204290E+000
       O  1.0836079141151281E+001 -5.6894273768294319E+000 -4.1092415158158673E+000
       H  3.1715505311940586E+001  1.5229007595124925E+001  1.2268289367725774E+001
       H  3.3219060255035444E+001  1.5241185130969908E+001  1.1879043102542418E+001
       O  3.2572912829910081E+001  1.5493176904848665E+001  1.2610477345830432E+001
       H  1.9649683765716272E+001  8.6090450588985341E+000  9.3380865827748050E+000
       H  2.0246069352050931E+001  8.8830271783319805E+000  7.9745567826568236E+000
       O  1.9395682698526723E+001  8.7335789500087593E+000  8.4489600075437075E+000
       H  8.7027201718907854E+000 -6.6980040850657794E+000  8.8283982191330921E+000
       H  8.4863245974645380E+000 -6.4823546094120958E+000  7.2571938500127606E+000
       O  8.1787098440658728E+000 -6.9665751067880679E+000  8.0515749347787455E+000
       H -5.7020970819343244E+000  7.0893560217349831E+000  4.6800582009768723E+000
       H -4.6761581454827965E+000  7.9791947649704174E+000  3.9629798254594495E+000
       O -5.6320832461266264E+000  7.7773863714472729E+000  3.9913584271987190E+000
       H  1.5177312205405700E+001 -1.2903671176400509E+001 -2.4023134289470889E+000
       H  1.4499483589667275E+001 -1.3203276772844321E+001 -1.2229846484113696E+000