 # Version information for this restart file 
 # current date 2025-03-31 16:27:16.914
 # current working dir /ccc/scratch/cont003/gen2309/sicilana/NPT/128_H2O_4_NaCl_10_wt_673K_1000bar/BATCH_11_MD_T_673_P_1000_steps_1000_dt_0.5_NH2O_128_NaCl_4_abc_17.19_17.19_17.19_wt_9.20
 # Program compiled at                                       2024-10-31 15:04:21
 # Program compiled on                                                 topaze131
 # Program compiled for                                                   x86_64
 # Source code revision number                                                  
 &GLOBAL
   PRINT_LEVEL LOW
   PROJECT_NAME "brines"
   RUN_TYPE MD
   FLUSH_SHOULD_FLUSH T
 &END GLOBAL
 &MOTION
   &MD
     ENSEMBLE NPT_I
     STEPS 1000
     TIMESTEP  4.9999999999999994E-001
     STEP_START_VAL 26150
     TIME_START_VAL  1.3075000000006767E+004
     ECONS_START_VAL -2.4590398713531335E+003
     TEMPERATURE  6.7300000000000011E+002
     &BAROSTAT
       PRESSURE  1.0000000000000000E+003
       TIMECON  9.9999999999999989E+002
       &VELOCITY
          -6.0878939061944274E-006
       &END VELOCITY
       &MASS
           4.2836593343398705E+007
       &END MASS
       &THERMOSTAT
         TYPE CSVR
         &CSVR
           TIMECON  9.6755373060191388E+001
           &THERMOSTAT_ENERGY
               5.9151183767065796E-004
           &END THERMOSTAT_ENERGY
           &RNG_INIT
 Wiener process for Thermostat # 1        1 F T F   1.1335677791963721E+00        1254148260.0        1191327315.0        2133106411.0        3928545118.0        3074983928.0         111638111.0             12345.0             12345.0             12345.0             12345.0             12345.0             12345.0             12345.0             12345.0             12345.0             12345.0             12345.0             12345.0
           &END RNG_INIT
         &END CSVR
       &END THERMOSTAT
     &END BAROSTAT
     &THERMOSTAT
       TYPE CSVR
       &CSVR
         TIMECON  9.9999999999999989E+002
         &THERMOSTAT_ENERGY
            -7.9119168238457438E-001
         &END THERMOSTAT_ENERGY
         &RNG_INIT
 Wiener process for Thermostat # 1        1 F T F   9.1117133847441811E-01        1935902990.0        3520963197.0        2074922358.0        3045119140.0        4280464277.0        2769322384.0             12345.0             12345.0             12345.0             12345.0             12345.0             12345.0             12345.0             12345.0             12345.0             12345.0             12345.0             12345.0
         &END RNG_INIT
       &END CSVR
     &END THERMOSTAT
     &AVERAGES T
       &RESTART_AVERAGES
         ITIMES_START 1
         AVECPU  2.3007062881695763E+001
         AVEHUGONIOT  0.0000000000000000E+000
         AVETEMP_BARO  3.0779298235917963E+002
         AVEPOT -2.4597157917443697E+003
         AVEKIN  1.2227303409351238E+000
         AVETEMP  6.5832436980227453E+002
         AVEKIN_QM  0.0000000000000000E+000
         AVETEMP_QM  0.0000000000000000E+000
         AVEVOL  3.8561674010182760E+004
         AVECELL_A  3.3708561359511911E+001
         AVECELL_B  3.3708561359511911E+001
         AVECELL_C  3.3708561359511911E+001
         AVEALPHA  9.0000000000000000E+001
         AVEBETA  9.0000000000000000E+001
         AVEGAMMA  9.0000000000000000E+001
         AVE_ECONS -1.2958158898703883E+002
         AVE_PRESS  3.8594783012690488E+002
         AVE_PXX  3.6045274309592878E+002
       &END RESTART_AVERAGES
     &END AVERAGES
   &END MD
   &PRINT
     &TRAJECTORY SILENT
       FILENAME =brines-1.xyz
       &EACH
         MD 1
       &END EACH
     &END TRAJECTORY
     &CELL SILENT
       FILENAME =brines-1.cell_xyz
       &EACH
         MD 1
       &END EACH
     &END CELL
     &VELOCITIES SILENT
       FILENAME =brines-1.vel
       &EACH
         MD 1
       &END EACH
     &END VELOCITIES
     &FORCES SILENT
       FILENAME =brines-1.force
       &EACH
         MD 1
       &END EACH
     &END FORCES
     &STRESS SILENT
       FILENAME =brines-1.stress
       &EACH
         MD 1
       &END EACH
     &END STRESS
     &RESTART SILENT
       FILENAME =brines-1.restart
       &EACH
         MD 1
       &END EACH
     &END RESTART
     &RESTART_HISTORY SILENT
       &EACH
         MD 50
       &END EACH
     &END RESTART_HISTORY
   &END PRINT
 &END MOTION
 &FORCE_EVAL
   METHOD QS
   STRESS_TENSOR ANALYTICAL
   &DFT
     BASIS_SET_FILE_NAME /ccc/work/cont003/gen2309/sicilana/DATA_CP2K/GTH_BASIS_SETS
     POTENTIAL_FILE_NAME /ccc/work/cont003/gen2309/sicilana/DATA_CP2K/GTH_POTENTIALS
     &SCF
       MAX_SCF 50
       EPS_SCF  9.9999999999999995E-008
       &OT T
         MINIMIZER DIIS
         PRECONDITIONER FULL_SINGLE_INVERSE
       &END OT
       &OUTER_SCF T
         EPS_SCF  9.9999999999999995E-008
         MAX_SCF 50
       &END OUTER_SCF
     &END SCF
     &QS
       EPS_DEFAULT  1.0000000000000000E-014
       EPSFIT  9.9999999999999995E-007
       EPSISO  9.9999999999999998E-013
       EPSRHO0  1.0000000000000000E-008
       QUADRATURE GC_LOG
       EXTRAPOLATION ASPC
       METHOD GAPW
     &END QS
     &MGRID
       NGRIDS 4
       CUTOFF  6.0000000000000000E+002
       REL_CUTOFF  6.0000000000000000E+001
     &END MGRID
     &XC
       DENSITY_CUTOFF  1.0000000000000000E-010
       GRADIENT_CUTOFF  1.0000000000000000E-010
       TAU_CUTOFF  1.0000000000000000E-010
       &XC_FUNCTIONAL NO_SHORTCUT
         &PBE T
           PARAMETRIZATION REVPBE
         &END PBE
       &END XC_FUNCTIONAL
       &VDW_POTENTIAL
         POTENTIAL_TYPE PAIR_POTENTIAL
         &PAIR_POTENTIAL
           R_CUTOFF  1.2000000000000000E+001
           TYPE DFTD3
           PARAMETER_FILE_NAME /ccc/work/cont003/gen2309/sicilana/DATA_CP2K/dftd3.dat
           REFERENCE_FUNCTIONAL "PBE"
           CALCULATE_C9_TERM T
           REFERENCE_C9_TERM T
           VERBOSE_OUTPUT T
           D3_EXCLUDE_KIND 3
         &END PAIR_POTENTIAL
       &END VDW_POTENTIAL
     &END XC
     &REAL_TIME_PROPAGATION
       INITIAL_WFN RT_RESTART
     &END REAL_TIME_PROPAGATION
     &PRINT
       &MO_CUBES SILENT
         WRITE_CUBE F
         NLUMO 10
         NHOMO 2
         &EACH
           MD 200
         &END EACH
       &END MO_CUBES
       &MOMENTS ON
         ADD_LAST NUMERIC
         COMMON_ITERATION_LEVELS 20000
         FILENAME =brines-1.dipoles
         REFERENCE COM
         &EACH
           MD 1
         &END EACH
       &END MOMENTS
     &END PRINT
   &END DFT
   &SUBSYS
     &CELL
       A  1.8938251527269159E+001  0.0000000000000000E+000  0.0000000000000000E+000
       B  0.0000000000000000E+000  1.8938251527269159E+001  0.0000000000000000E+000
       C  0.0000000000000000E+000  0.0000000000000000E+000  1.8938251527269159E+001
       MULTIPLE_UNIT_CELL 1 1 1
     &END CELL
     &COORD
       H  9.8119432546099130E+000  2.2518404646220112E+001  9.8412692183041950E-001
       H  8.7606085462397481E+000  2.3225028043222313E+001  1.7061990736706849E+000
       O  9.7056084543641816E+000  2.2902771948158744E+001  1.8796777713601647E+000
       H  7.7255954646805263E+000 -8.5581645268253848E+000  2.0729509046881840E+000
       H  8.4656454024318837E+000 -8.6995305302654717E+000  3.3127272417503160E+000
       O  7.7954397842042491E+000 -8.1141933243516373E+000  2.9731434175299620E+000
       H -9.7565703319999866E+000  4.7282423632403358E+001  4.8099281786739454E+001
       H -9.9257631366622654E+000  4.7834567615840676E+001  4.6642600011600379E+001
       O -9.7608170070645404E+000  4.6999216718998014E+001  4.7188719861673690E+001
       H  9.1515792646688610E+000  2.2375650240332828E+001  2.4139133199774051E+001
       H  9.1238659475092323E+000  2.3723495149869049E+001  2.3285305326569194E+001
       O  8.7119312821934276E+000  2.3288164733406187E+001  2.4080390250998182E+001
       H -9.7441809539297690E+000  5.1792488632144549E+000  1.0193441959413477E+001
       H -9.9997441473468207E+000  6.5149654460485147E+000  9.7220093245172592E+000
       O -9.4578936448131046E+000  6.0312690382102119E+000  1.0383000719344375E+001
       H  3.3293185577338001E+001  2.8254353720292062E+001 -6.1021568504650947E+000
       H  3.2742008166724503E+001  2.8954272095644864E+001 -7.3606468399407232E+000
       O  3.3169966422819613E+001  2.9153672934167655E+001 -6.5324832608339252E+000
       H -4.4295063542548743E+000  5.3926300595636398E+000  8.7289221080509805E+000
       H -5.8012726652917372E+000  5.7716453038357596E+000  9.2814904012531816E+000
       O -5.2682948125220719E+000  5.0054547330172694E+000  9.0426661037696157E+000
       H  2.5235945977016776E+001 -6.6632813418124071E-001 -1.4128953891101976E+000
       H  2.4777105115143236E+001  7.0653251548711982E-001 -1.3524058608272294E+000
       O  2.4692771675076695E+001 -9.4474059799810078E-002 -8.1379139051672744E-001
       H  2.2127235923123145E+001  1.3348922157236743E+001  1.4914471197540953E+001
       H  2.1886760061138766E+001  1.3330163591020758E+001  1.3445656568387967E+001
       O  2.1669899725619086E+001  1.3888239680373518E+001  1.4295452590322837E+001
       H  2.3905377824369079E+001 -5.7980633153488370E-001  2.1795434036990635E+001
       H  2.3440756884884049E+001 -1.7726646810140296E+000  2.2514418603043033E+001
       O  2.3983783569122714E+001 -9.2278361521121055E-001  2.2631426102986914E+001
       H  6.0340574810968270E+000 -1.2273415571895001E-002 -9.6979264172158501E+000
       H  4.6321243031383350E+000 -1.0502769128203078E-001 -9.3181831843387197E+000
       O  5.2617582192504733E+000  4.5751904271750810E-001 -9.9171486462560257E+000
       H  1.2578690157072758E+001  3.2063592416749036E+000  2.2331114038804817E+001
       H  1.1230096548840475E+001  3.7865440755229662E+000  2.2106171046990038E+001
       O  1.1925804381415876E+001  3.7762276073045551E+000  2.2795567731477686E+001
       H  1.7484412942641477E+001  1.3373555179704880E+001  4.2782533093560042E+000
       H  1.7503384741901343E+001  1.4873579166712696E+001  4.4347325827074178E+000
       O  1.6919166741697040E+001  1.4170758072454889E+001  4.0577821718360996E+000
       H  5.6187314183457095E+000 -9.9573004316692142E+000 -1.5907930009047930E+000
       H  6.7195194748252671E+000 -1.1116740025815027E+001 -1.6178407749397401E+000
       O  6.6209250705355620E+000 -1.0129421194554798E+001 -1.5159115446684015E+000
       H  3.0238277699848869E+001  3.5232346957835937E+001  6.7284634539719612E-001
       H  3.0993770473345201E+001  3.5588346094823059E+001 -7.1865476641192838E-001
       O  3.0097786329450258E+001  3.5513706601778644E+001 -2.3585263381595634E-001
       H  1.4371679973699388E+001  2.0194106949614699E+000 -1.0654057470789772E+001
       H  1.3310071429469730E+001  3.0659974378191301E+000 -1.0101616783891835E+001
       O  1.3615763149528915E+001  2.0875332872996637E+000 -1.0167168051496946E+001
       H  1.9843970865174843E+001  2.7873350759925508E-001  6.1270089327578434E+000
       H  2.0622990997078354E+001  8.6434272790736288E-001  7.2901240190641090E+000
       O  2.0278038012411741E+001  1.1104208220784095E+000  6.3968496540825059E+000
       H  9.3793431882779554E+000 -1.8809269558154553E+000  1.7639965385059469E+001
       H  8.3515871153175514E+000 -7.5798802517437136E-001  1.7398633779213576E+001
       O  8.6919166935297838E+000 -1.6174074345174003E+000  1.7050554920080412E+001
       H  4.4564231739722144E+000  1.7868264096635315E+001  7.5987397346175367E+000
       H  4.9206876532476906E+000  1.6588091661022730E+001  6.8223742915278152E+000
       O  4.1370576483723633E+000  1.7137217719071707E+001  6.9867473087310872E+000
       H  2.1155428513716100E+001  2.5495699204446751E+001  2.9694178425647113E+000
       H  1.9713948674664639E+001  2.5873635178198647E+001  3.3269770748786378E+000
       O  2.0274868940307769E+001  2.5406072147669295E+001  2.6235698569210073E+000
       H  1.7074949865064699E+001  1.0620526402780580E+001  2.0316499370073391E+001
       H  1.6579285433141713E+001  1.2222317648946408E+001  2.0033649674872084E+001
       O  1.6977738592283227E+001  1.1541015450779653E+001  2.0701316188948606E+001
       H  1.0316669463456710E+001 -1.1262216801457162E+001  1.7930899701200261E+001
       H  9.3813223452125563E+000 -1.2334905255432281E+001  1.7631790377521039E+001
       O  1.0003881597865330E+001 -1.1775654327757552E+001  1.7172406910236102E+001
       H  2.7438934818382396E+001  1.3961590283515438E+001  2.2853464892581734E+001
       H  2.8887746590728536E+001  1.4437501160150141E+001  2.2830017246732194E+001
       O  2.8071581156342727E+001  1.4491292141532391E+001  2.3430863520185554E+001
       H -1.8007029571097849E+001  8.4195234254434350E+000  1.4792438117480849E+001
       H -1.7103112659341004E+001  7.1886000996732067E+000  1.4998960233960116E+001
       O -1.7111041586744538E+001  8.1450618716114604E+000  1.4827201574871495E+001
       H  1.6025063180915813E+000  6.1918337676102251E+000  5.7128508349942351E+000
       H  1.6111272762969946E+000  5.6708456856362330E+000  7.2552102497113271E+000
       O  1.0122380650618708E+000  5.8736265062214681E+000  6.4797852788804580E+000
       H -7.5192843775122586E+000 -1.4611242412723112E+001  1.7887432931903266E+001
       H -7.2969030031634450E+000 -1.6187596324820760E+001  1.8061078448853010E+001
       O -7.9555403402186187E+000 -1.5487297575113791E+001  1.7992347797950980E+001
       H  2.7388091664896656E+001  9.2573924798630731E+000 -4.4090253990657041E-001
       H  2.7195726201608043E+001  1.0644714006243486E+001 -6.9685334041478542E-001
       O  2.7853785693966842E+001  1.0064588214557087E+001 -2.2190622669005880E-001
       H  1.2193677290780334E+001 -2.1913721927911620E+000  2.5213365088267935E+001
       H  1.3036507469774950E+001 -3.4973126889198078E+000  2.5260136246416586E+001
       O  1.2298158543933965E+001 -2.9743289457503406E+000  2.5685937396125677E+001
       H -6.3454237653599836E+000  8.9964253419992861E+000 -2.3678783674833244E+000
       H -5.0060815945322332E+000  8.1772930706274938E+000 -2.5295137042102027E+000
       O -5.9642853211038958E+000  8.0845787470957404E+000 -2.4931308730580120E+000
       H  6.7436128809093594E+000  4.5736341132979534E+000  8.3303403706051149E-001
       H  7.3109629811984274E+000  6.0649515160378806E+000  2.9153452154182652E-001
       O  7.3628304527029638E+000  5.0919617835128470E+000  2.7841460645813942E-001
       H  1.0707158148360854E+000 -1.2364764308158611E+000  1.6356305418551942E+000
       H  4.1936480132454579E-001 -2.6155236981584268E-001  2.5393997179902401E+000
       O  9.6204355067285807E-001 -1.0946600019903929E+000  2.5579063693549808E+000
       H -3.4469098184896030E+000  2.1399293562061619E+001 -4.9602452482898878E+000
       H -2.3480789052232311E+000  2.1927154451528342E+001 -4.3085804195640316E+000
       O -3.1415115416336299E+000  2.2240179888920071E+001 -4.6305954580511406E+000
       H  2.3656710921593621E+001  2.4904250807776343E+001  1.2249036359737064E+001
       H  2.2673788517505081E+001  2.6012218317622281E+001  1.1986466573123307E+001
       O  2.2958114137397835E+001  2.5191375576298789E+001  1.1554503113455329E+001
       H  1.8473213602915879E+000 -2.0424154262541947E+001 -6.6447035674019777E+000
       H  2.3486961309121157E+000 -1.9018833994484318E+001 -6.9748023748086920E+000
       O  2.6961332878386917E+000 -1.9911254963372457E+001 -6.5438253225716432E+000
       H  8.1565321714788812E+000  2.2794725655231334E+000  1.1777680834265800E+001
       H  8.7754432465965149E+000  3.6874028224132531E+000  1.1938368199150911E+001
       O  8.2739053555254571E+000  3.1509068408359528E+000  1.1274707709619546E+001
       H  1.3197059905054655E+001  1.9696003769525618E+001 -1.8288485529701383E+001
       H  1.1743611409769242E+001  2.0470929638100550E+001 -1.8351310177146999E+001
       O  1.2653829368069685E+001  2.0510851061851909E+001 -1.8356784945989038E+001
       H  1.3208475091441588E+001 -9.0644220577545003E+000 -1.7660937228100220E+001
       H  1.4459873852893063E+001 -8.2628167693048962E+000 -1.7414656111995907E+001
       O  1.3569421556001139E+001 -8.1267971475742939E+000 -1.7694053326659457E+001
       H  1.3807251776430522E+001 -2.8147494100749397E+000  2.9229062091620065E+001
       H  1.3384603572161316E+001 -3.3695693949447731E+000  2.7781342132240155E+001
       O  1.4154485324045954E+001 -2.9639100741982438E+000  2.8300273465288637E+001
       H  2.2035115522511362E+001  5.7251607539789928E+000  1.6445662716008872E+001
       H  2.2038915929906313E+001  5.5616902252956262E+000  1.7803279008204182E+001
       O  2.1479520809016886E+001  5.9529527180906454E+000  1.7181340957641062E+001
       H  1.6105853165097159E+001  2.1818697470028344E+001  1.1567685581860426E+001
       H  1.5034013135527053E+001  2.1473912590284968E+001  1.0488785273605242E+001
       O  1.5662542062316138E+001  2.1095624446255183E+001  1.1142018103204082E+001
       H  3.6109440052153556E+000  1.5487314464181108E+000  3.7183311663190621E+000
       H  2.5685305148793804E+000  2.6334581951295153E+000  3.9931752000536620E+000
       O  3.2140649488400101E+000  2.3361956227061458E+000  3.3881560341206045E+000
       H  1.8150200973607610E+001  2.3627771995470287E+001 -6.9251610944394324E+000
       H  1.8508419546794165E+001  2.2673406497731435E+001 -5.7639125653364607E+000
       O  1.8727680508235935E+001  2.2838162154584072E+001 -6.7374089083180317E+000
       H  2.3705747769724250E+000  3.4894990131843109E+001  1.6086461513805535E+001
       H  3.7187663108724966E+000  3.5020838029676590E+001  1.5286731073736675E+001
       O  3.2507612353223601E+000  3.5238094907231513E+001  1.6182402352732414E+001
       H  1.2411368701791647E+001  1.4809544588241828E+000  1.2900571722336650E+001
       H  1.2823246931616465E+001  1.3440196796444057E+000  1.1295101128988945E+001
       O  1.2130095059484940E+001  1.6034336470805697E+000  1.1933143525650872E+001
       H  1.3899439689083744E+001  1.5998266553424497E+001 -1.7443452225724265E+001
       H  1.2386388364544457E+001  1.5618974336681124E+001 -1.7135399604429686E+001
       O  1.3077179899601798E+001  1.6306865358066663E+001 -1.7022329064121799E+001
       H -1.0065999111303544E+001  1.4249550246826233E+001  6.9659426683330006E+000
       H -8.7629014836416221E+000  1.4839692425843603E+001  7.6861125980621621E+000
       O -9.6591212722549571E+000  1.4463506926069767E+001  7.7960223018423624E+000
       H  9.6161769028305937E+000  3.6548868972306295E+001  1.4325854497919639E+001
       H  9.5032585495812008E+000  3.5735601868471385E+001  1.5630751031096263E+001
       O  9.7746161066274144E+000  3.5631636159108609E+001  1.4692851908106221E+001
       H  6.1738235828995442E+000  5.1888988058808305E+000  1.7865200603719568E+001
       H  6.2391928645437336E+000  5.2840710966567865E+000  1.6338083127265314E+001
       O  5.6337492708025856E+000  5.5482964053400670E+000  1.7056068540721451E+001
       H -1.8594005414272052E+000  1.9221531712636807E+001 -1.1395763856180721E+000
       H -4.0858513602361141E-001  1.9021386627587301E+001 -1.2490568155129764E+000
       O -1.0809843617293233E+000  1.9742638323549620E+001 -9.6323875105899770E-001
       H -6.5132442863989564E+000  1.8001569347324036E+001  2.2224398591185544E+001
       H -6.5088005823267991E+000  1.9115490547250964E+001  2.3379268461912766E+001
       O -5.9967799481051642E+000  1.8376959982124870E+001  2.3059726980898201E+001
       H  1.8307575686127116E+001 -3.9853878797409181E+000  6.8272572023338949E+000
       H  1.8871258967749348E+001 -2.5457141042909619E+000  6.9923469507327862E+000
       O  1.8831912292411836E+001 -3.2715253547800787E+000  6.3671670224162913E+000
       H -3.1848388981984741E+001  4.6811148274377317E+000  2.2220382443166688E+001
       H -3.2993378225166133E+001  3.5923577609376776E+000  2.1969238368467884E+001
       O -3.2586168764851045E+001  4.4266116924593337E+000  2.1562891720815216E+001
       H  1.0492159889193140E+001  1.0107593225605099E+001  1.2322859485762468E+001
       H  9.0987160578429851E+000  1.0444498286027475E+001  1.2297771555139715E+001
       O  9.7835237873304504E+000  1.0077223451720265E+001  1.1699395892511383E+001
       H  1.7486927605147368E+001 -1.6699317039211930E+001  2.2369769861116485E+001
       H  1.7436382591086861E+001 -1.5477157835137131E+001  2.3186468081942397E+001
       O  1.7841837502608730E+001 -1.6326565826176509E+001  2.3205108513268662E+001
       H -1.8464187156334175E-001  1.5294523831533093E+001 -4.8105688566079330E+000
       H -4.4954007427565434E-001  1.6842790880610256E+001 -4.7912434211023713E+000
       O -4.0588638947609862E-001  1.6063804061488227E+001 -5.3941682263401693E+000
       H  1.8253402101551430E+001  9.5328095416606171E+000  1.6314934336646715E+001
       H  1.9761079087550108E+001  9.9543897529841558E+000  1.6046656748775685E+001
       O  1.8916220157333196E+001  9.8592763730197692E+000  1.5646725678788108E+001
       H  2.1278602706962415E+000  9.2373603048859820E+000  2.5233196350468152E+001
       H  3.1572331638234283E+000  9.4809031498371290E+000  2.6402775725252990E+001
       O  2.7721191170808770E+000  8.7443241040787569E+000  2.5734709798725419E+001
       H  3.0124097997678572E+000 -7.8502324896529938E+000 -1.5227005164015948E+000
       H  2.9063928291768630E+000 -6.2029582814141309E+000 -1.1836077463000221E+000
       O  3.1344808742972514E+000 -6.9377119953657385E+000 -1.8254762581307518E+000
       H  3.0485395794928980E+000  9.1869993311951816E+000  1.6514568054876769E+001
       H  2.7624792990517766E+000  8.0230631286891914E+000  1.7550587364270463E+001
       O  3.1386146446883254E+000  8.9351834950262514E+000  1.7491131354444107E+001
       H  7.3583249381026601E+000  2.4305329084916899E+001  3.2869611553417762E+001
       H  6.8725551899974420E+000  2.2903748510453877E+001  3.2984838186245462E+001
       O  6.6842072980059015E+000  2.3783857956832925E+001  3.3338318290369777E+001
       H  8.3015837988048737E+000  3.2742259265075802E+001 -2.5753424807390939E+000
       H  8.8827601655370962E+000  3.2774447309446771E+001 -1.2172752275397942E+000
       O  9.0993420660653204E+000  3.2473013149724466E+001 -2.0798365339006928E+000
       H  1.5346060711502807E-001  1.0249504875263298E+001  1.1393958350583643E+001
       H -3.7794670215240370E-002  1.1561107085464293E+001  1.2072140867324155E+001
       O -1.4414559234203486E-001  1.1124498254904870E+001  1.1219683767624405E+001
       H  1.4995230181983617E+001  1.2387855904936430E+001 -1.9456071412565770E+001
       H  1.6213583161693396E+001  1.3035508535926988E+001 -2.0179296440067766E+001
       O  1.5765096503246262E+001  1.2937702359206142E+001 -1.9266443652453734E+001
       H  1.3859973513206253E+001 -1.0989098251655811E+000  1.6041951935659274E+001
       H  1.2745806957432855E+001 -1.8310598991320763E+000  1.5325709095943894E+001
       O  1.3048468502111128E+001 -1.6241727129222430E+000  1.6280615049661620E+001
       H  1.5970534731335322E+001  7.9167116798077286E+000  2.0515578491744861E+001
       H  1.5082412871307625E+001  7.5204268242545211E+000  2.1567932650234674E+001
       O  1.5151011678039239E+001  7.6197192392481821E+000  2.0653487020282949E+001
       H  2.9130700067421149E+001 -9.1434524805959250E-001  2.2522887390346824E+001
       H  2.7957030527640296E+001 -1.5608591782503594E+000  2.1999241917673718E+001
       O  2.8914682781257415E+001 -1.3498871202983884E+000  2.1667930354742531E+001
       H  2.1047859775301763E+001  1.5223438397134919E+001  1.8181776643018765E+001
       H  2.0133512455720929E+001  1.4110123307247191E+001  1.7729839638939751E+001
       O  2.0881923941448111E+001  1.4266556416131195E+001  1.8294164898459780E+001
       H  1.1153566633499141E+001  5.0296574266894574E+000 -5.5363127809716541E+000
       H  1.0277020563559997E+001  6.1412727874651418E+000 -4.8945626542257372E+000
       O  1.0223813828285685E+001  5.3230811973505494E+000 -5.3618535044160076E+000
       H -2.3994675510532946E+000  1.1645008094061110E+001 -4.7591680258723867E+000
       H -2.5798570576998401E+000  1.2881462993706140E+001 -5.5069615787329820E+000
       O -1.9607667031393665E+000  1.2209666191262345E+001 -5.3656947017381800E+000
       H  7.5131710208936378E+000  7.2835747799875747E+000  1.2003690423298321E+001
       H  8.3364103735336403E+000  6.0801870132009972E+000  1.2103523865219435E+001
       O  7.9111013940117889E+000  6.6877176770867308E+000  1.2698278452553486E+001
       H -1.6085031274103493E+001 -3.3314119947138154E+000  5.1689609819158235E+000
       H -1.6814174510871002E+001 -3.3529419313894566E+000  4.0189198231952119E+000
       O -1.6184241654472793E+001 -3.9180495055055293E+000  4.4708427714670034E+000
       H -1.0465102777252220E+000  7.4253010617953326E+000 -7.3518200363789212E+000
       H -8.2887245918376340E-001  8.0338802515203689E+000 -8.6210690184251160E+000
       O -3.5437027545924726E-001  7.8250005383326702E+000 -7.8733474658238292E+000
       H  1.3722297087256743E+001  8.5413785960241597E+000  7.5922946615662807E+000
       H  1.3674817582185662E+001  1.0025886203234375E+001  8.2259101276435267E+000
       O  1.3916276063385061E+001  9.5301748493451868E+000  7.4037762537737040E+000
       H  3.1863477441802619E+000  1.0623962762779348E+001  2.9227314132844202E+000
       H  1.6838928865290306E+000  1.0670360719951081E+001  2.9568657539476870E+000
       O  2.5040907948824707E+000  1.0729615494203687E+001  2.2843066549333484E+000
       H  1.1884645506558668E+001  1.5770378729350886E+001 -6.9938600284527688E+000
       H  1.2474657088982520E+001  1.4270848815476482E+001 -6.6990159406581054E+000
       O  1.2709381818137642E+001  1.5232205879333902E+001 -6.6631896365701078E+000
       H  1.5251753299576086E+001  1.9254935584516936E+001  1.2681154460218131E+001
       H  1.5268516736303479E+001  1.8216090659602767E+001  1.3795724664786466E+001
       O  1.4922727569388417E+001  1.9097833343207792E+001  1.3592326849583777E+001
       H  6.2824941733113757E+000 -5.1918353725436024E+000 -1.2565143825423931E+001
       H  5.9867120774672582E+000 -4.5486424182674465E+000 -1.1180226903500291E+001
       O  6.2415298924428075E+000 -4.3508538309117757E+000 -1.2083896256330441E+001
       H  4.8649886067567856E+000  1.1554435378286559E+001  6.1627737113608108E+000
       H  5.6266850899465144E+000  1.1497217738046606E+001  4.7461599517810864E+000
       O  5.5879268525342063E+000  1.1919841224527548E+001  5.6117136936685634E+000
       H  1.1425614066661828E+001  7.3229271988002704E+000  9.8753708359421228E+000
       H  1.0888590866654082E+001  8.6595465937414637E+000  9.2848430964056980E+000
       O  1.1585368630626954E+001  8.2433069711034506E+000  9.9031852004075844E+000
       H  7.5398447923231304E-001  1.2053511622891691E+000 -8.0141840589952906E+000
       H  6.6655563604295920E-001  2.2028737614522083E+000 -6.8499065602970317E+000
       O  9.6410460292778721E-001  1.3880753738687133E+000 -7.1688290035712789E+000
       H  1.9386365724300518E+000  1.3835055643943038E+001  6.5889670774785287E+000
       H  2.5226100042312871E+000  1.3168889860977798E+001  7.8969829951513306E+000
       O  1.8037065397152616E+000  1.3774516431446431E+001  7.5218306433339626E+000
       H -7.1953730347625910E+000 -5.3827427451146335E+000  1.6815873799607310E+001
       H -7.2401700533705853E+000 -6.4177453948452001E+000  1.8052263315444488E+001
       O -6.7514057416236506E+000 -6.1807392678739550E+000  1.7208665700147652E+001
       H  1.8388020961546992E+001  2.4523152263381021E+000  1.5581404052072699E+001
       H  1.8435284763704832E+001  9.5112722990768417E-001  1.5119593630162829E+001
       O  1.8276851412551206E+001  1.8923153304379028E+000  1.4820201175600529E+001
       H  1.5620523528507690E+001 -4.5735792108155700E+000  2.9180666456139996E+001
       H  1.7032493898156613E+001 -4.9874129085678174E+000  2.9092238940096134E+001
       O  1.6521992517269986E+001 -4.2129604479002891E+000  2.9036491809509744E+001
       H  1.8728177253394250E+001  1.2062617882877558E+000  1.9599330221566763E+001
       H  1.9007704154934313E+001  2.2260494191122406E+000  2.0743991358072972E+001
       O  1.9447678739194892E+001  1.5471125927839871E+000  2.0134010433066418E+001
       H  9.6411613289871845E+000  3.1563397634367436E+000 -4.7881729749678676E+000
       H  9.7829616202504841E+000  2.2146516382301993E+000 -6.0087211315990663E+000
       O  9.5993700600395258E+000  2.1790414585860778E+000 -5.0161323847146289E+000
       H  1.1313764701676547E+001 -6.4445882370768173E+000 -5.2564545113438372E+000
       H  1.0432503053257738E+001 -5.8760137750288548E+000 -3.8804873138305300E+000
       O  1.0415998804618736E+001 -6.4200712633549868E+000 -4.7240539072047021E+000
       H  3.3472389233072590E+001  1.5264533152922567E+001  1.3428579911031813E+001
       H  3.5018057056967287E+001  1.5510998345418674E+001  1.3539644409051624E+001
       O  3.4291928761864099E+001  1.4790779269831340E+001  1.3592381749194002E+001
       H  1.9463035183442386E+001  9.2168690378153144E+000  8.9554025834138660E+000
       H  1.9507863836435916E+001  8.3192141895190748E+000  7.7480226057442945E+000
       O  1.8838803263820544E+001  8.8693358523310586E+000  8.2939847202626069E+000
       H  8.0878011105599530E+000 -7.0702482909566902E+000  7.8712481149170106E+000
       H  9.3889103060514767E+000 -6.1681376913901866E+000  8.1036172956954999E+000
       O  8.9938812138238013E+000 -7.0565398566645543E+000  8.1672086584202717E+000
       H -5.9923471998872841E+000  6.1844976673274630E+000  4.1628648345970349E+000
       H -4.5928763624844500E+000  5.9902769923844366E+000  4.7021227587432257E+000
       O -5.0675343804157063E+000  6.5750671214399139E+000  4.0862976947950260E+000
       H  1.4094026716260601E+001 -1.3291211810241172E+001 -1.9555078756898792E+000
       H  1.2777147190238693E+001 -1.2929283300479581E+001 -1.9028215298225752E+000