 # Version information for this restart file 
 # current date 2025-03-31 23:00:30.530
 # current working dir /ccc/scratch/cont003/gen2309/sicilana/NPT/128_H2O_4_NaCl_10_wt_673K_1000bar/BATCH_11_MD_T_673_P_1000_steps_1000_dt_0.5_NH2O_128_NaCl_4_abc_17.19_17.19_17.19_wt_9.20
 # Program compiled at                                       2024-10-31 15:04:21
 # Program compiled on                                                 topaze131
 # Program compiled for                                                   x86_64
 # Source code revision number                                                  
 &GLOBAL
   PRINT_LEVEL LOW
   PROJECT_NAME "brines"
   RUN_TYPE MD
   FLUSH_SHOULD_FLUSH T
 &END GLOBAL
 &MOTION
   &MD
     ENSEMBLE NPT_I
     STEPS 1000
     TIMESTEP  4.9999999999999994E-001
     STEP_START_VAL 26850
     TIME_START_VAL  1.3425000000006228E+004
     ECONS_START_VAL -2.4590398713531335E+003
     TEMPERATURE  6.7300000000000011E+002
     &BAROSTAT
       PRESSURE  1.0000000000000000E+003
       TIMECON  9.9999999999999989E+002
       &VELOCITY
          -3.9821481756178541E-007
       &END VELOCITY
       &MASS
           4.2836593343398705E+007
       &END MASS
       &THERMOSTAT
         TYPE CSVR
         &CSVR
           TIMECON  9.6755373060191388E+001
           &THERMOSTAT_ENERGY
               1.8670552831904588E-003
           &END THERMOSTAT_ENERGY
           &RNG_INIT
 Wiener process for Thermostat # 1        1 F T F  -5.1378176244548357E-01        1185071553.0        2166362398.0        3744314080.0        1775640667.0         146247672.0         236700905.0             12345.0             12345.0             12345.0             12345.0             12345.0             12345.0             12345.0             12345.0             12345.0             12345.0             12345.0             12345.0
           &END RNG_INIT
         &END CSVR
       &END THERMOSTAT
     &END BAROSTAT
     &THERMOSTAT
       TYPE CSVR
       &CSVR
         TIMECON  9.9999999999999989E+002
         &THERMOSTAT_ENERGY
            -8.2768885872719933E-001
         &END THERMOSTAT_ENERGY
         &RNG_INIT
 Wiener process for Thermostat # 1        1 F T F  -6.1053158248834993E-01        2447991575.0        3083310426.0        2642955101.0          54514925.0        2099722031.0         628151333.0             12345.0             12345.0             12345.0             12345.0             12345.0             12345.0             12345.0             12345.0             12345.0             12345.0             12345.0             12345.0
         &END RNG_INIT
       &END CSVR
     &END THERMOSTAT
     &AVERAGES T
       &RESTART_AVERAGES
         ITIMES_START 1
         AVECPU  2.3285970815090927E+001
         AVEHUGONIOT  0.0000000000000000E+000
         AVETEMP_BARO  3.0777464021210892E+002
         AVEPOT -2.4597237474642598E+003
         AVEKIN  1.2212811618213550E+000
         AVETEMP  6.5754412423638132E+002
         AVEKIN_QM  0.0000000000000000E+000
         AVETEMP_QM  0.0000000000000000E+000
         AVEVOL  3.8723526346210587E+004
         AVECELL_A  3.3755433981866844E+001
         AVECELL_B  3.3755433981866844E+001
         AVECELL_C  3.3755433981866844E+001
         AVEALPHA  9.0000000000000000E+001
         AVEBETA  9.0000000000000000E+001
         AVEGAMMA  9.0000000000000000E+001
         AVE_ECONS -1.3576424279695740E+002
         AVE_PRESS  4.0204095743498704E+002
         AVE_PXX  3.7731296551110529E+002
       &END RESTART_AVERAGES
     &END AVERAGES
   &END MD
   &PRINT
     &TRAJECTORY SILENT
       FILENAME =brines-1.xyz
       &EACH
         MD 1
       &END EACH
     &END TRAJECTORY
     &CELL SILENT
       FILENAME =brines-1.cell_xyz
       &EACH
         MD 1
       &END EACH
     &END CELL
     &VELOCITIES SILENT
       FILENAME =brines-1.vel
       &EACH
         MD 1
       &END EACH
     &END VELOCITIES
     &FORCES SILENT
       FILENAME =brines-1.force
       &EACH
         MD 1
       &END EACH
     &END FORCES
     &STRESS SILENT
       FILENAME =brines-1.stress
       &EACH
         MD 1
       &END EACH
     &END STRESS
     &RESTART SILENT
       FILENAME =brines-1.restart
       &EACH
         MD 1
       &END EACH
     &END RESTART
     &RESTART_HISTORY SILENT
       &EACH
         MD 50
       &END EACH
     &END RESTART_HISTORY
   &END PRINT
 &END MOTION
 &FORCE_EVAL
   METHOD QS
   STRESS_TENSOR ANALYTICAL
   &DFT
     BASIS_SET_FILE_NAME /ccc/work/cont003/gen2309/sicilana/DATA_CP2K/GTH_BASIS_SETS
     POTENTIAL_FILE_NAME /ccc/work/cont003/gen2309/sicilana/DATA_CP2K/GTH_POTENTIALS
     &SCF
       MAX_SCF 50
       EPS_SCF  9.9999999999999995E-008
       &OT T
         MINIMIZER DIIS
         PRECONDITIONER FULL_SINGLE_INVERSE
       &END OT
       &OUTER_SCF T
         EPS_SCF  9.9999999999999995E-008
         MAX_SCF 50
       &END OUTER_SCF
     &END SCF
     &QS
       EPS_DEFAULT  1.0000000000000000E-014
       EPSFIT  9.9999999999999995E-007
       EPSISO  9.9999999999999998E-013
       EPSRHO0  1.0000000000000000E-008
       QUADRATURE GC_LOG
       EXTRAPOLATION ASPC
       METHOD GAPW
     &END QS
     &MGRID
       NGRIDS 4
       CUTOFF  6.0000000000000000E+002
       REL_CUTOFF  6.0000000000000000E+001
     &END MGRID
     &XC
       DENSITY_CUTOFF  1.0000000000000000E-010
       GRADIENT_CUTOFF  1.0000000000000000E-010
       TAU_CUTOFF  1.0000000000000000E-010
       &XC_FUNCTIONAL NO_SHORTCUT
         &PBE T
           PARAMETRIZATION REVPBE
         &END PBE
       &END XC_FUNCTIONAL
       &VDW_POTENTIAL
         POTENTIAL_TYPE PAIR_POTENTIAL
         &PAIR_POTENTIAL
           R_CUTOFF  1.2000000000000000E+001
           TYPE DFTD3
           PARAMETER_FILE_NAME /ccc/work/cont003/gen2309/sicilana/DATA_CP2K/dftd3.dat
           REFERENCE_FUNCTIONAL "PBE"
           CALCULATE_C9_TERM T
           REFERENCE_C9_TERM T
           VERBOSE_OUTPUT T
           D3_EXCLUDE_KIND 3
         &END PAIR_POTENTIAL
       &END VDW_POTENTIAL
     &END XC
     &REAL_TIME_PROPAGATION
       INITIAL_WFN RT_RESTART
     &END REAL_TIME_PROPAGATION
     &PRINT
       &MO_CUBES SILENT
         WRITE_CUBE F
         NLUMO 10
         NHOMO 2
         &EACH
           MD 200
         &END EACH
       &END MO_CUBES
       &MOMENTS ON
         ADD_LAST NUMERIC
         COMMON_ITERATION_LEVELS 20000
         FILENAME =brines-1.dipoles
         REFERENCE COM
         &EACH
           MD 1
         &END EACH
       &END MOMENTS
     &END PRINT
   &END DFT
   &SUBSYS
     &CELL
       A  1.9008093321052765E+001  0.0000000000000000E+000  0.0000000000000000E+000
       B  0.0000000000000000E+000  1.9008093321052765E+001  0.0000000000000000E+000
       C  0.0000000000000000E+000  0.0000000000000000E+000  1.9008093321052765E+001
       MULTIPLE_UNIT_CELL 1 1 1
     &END CELL
     &COORD
       H  1.2645893947137651E+001  2.2102454186903483E+001  2.9396445689237725E+000
       H  1.4097888235586638E+001  2.1474815643005432E+001  2.7331293175041331E+000
       O  1.3441851026013774E+001  2.1822574549603395E+001  3.3567652752985162E+000
       H  7.7578112497094178E+000 -8.5435115857829338E+000  2.5625935888874243E+000
       H  6.5818874370955767E+000 -9.4053887269284129E+000  2.5152850108734301E+000
       O  6.8081487394390559E+000 -8.5508944402129607E+000  2.7728952644736888E+000
       H -9.6807124289652293E+000  4.7875448525437314E+001  4.7900764984612067E+001
       H -9.4586615376350203E+000  4.6370271869309654E+001  4.7544701624664420E+001
       O -9.6942023152700560E+000  4.7004833735258480E+001  4.8209259269231787E+001
       H  9.2907516271738135E+000  2.5728375151850280E+001  2.3754979394122227E+001
       H  8.8964477700678088E+000  2.4195910825334547E+001  2.3446216961009437E+001
       O  8.9473518526918188E+000  2.4859002596660247E+001  2.4067766353686803E+001
       H -1.4455647566912528E+001  5.0361742325778636E+000  9.7188229847642784E+000
       H -1.4087521803825679E+001  6.1344864746817001E+000  1.0750617574244911E+001
       O -1.4183512561262837E+001  5.1334051850834728E+000  1.0666933942232482E+001
       H  3.4187462035343600E+001  2.6756387869394704E+001 -6.2259987307149682E+000
       H  3.3653220357921299E+001  2.7990576280589792E+001 -6.9371805233676200E+000
       O  3.4542658466728113E+001  2.7539125148418602E+001 -6.7897000236191838E+000
       H -6.9414303643421658E+000  3.3252558162702397E+000  9.7430042040285798E+000
       H -6.1563226708009422E+000  4.5391855403902843E+000  9.7371871557542615E+000
       O -6.0199900754291198E+000  3.5559086390956858E+000  9.7517789703636115E+000
       H  2.5496935177845110E+001 -2.1862232895051519E+000 -5.3046565460665027E+000
       H  2.6302549494223872E+001 -6.2407568279492265E-001 -5.1418806082558639E+000
       O  2.5481466323803907E+001 -1.1667892195193683E+000 -5.0316385272451667E+000
       H  2.0401544913233163E+001  1.2748403898132862E+001  1.5141385022300630E+001
       H  2.1489406156827897E+001  1.2446004241789437E+001  1.4040588940682040E+001
       O  2.0756283496787592E+001  1.3052790247937615E+001  1.4368113547586947E+001
       H  2.4023082752205777E+001  4.2530198758868043E-001  2.4545392164109096E+001
       H  2.5104494849401391E+001 -2.7083702055514675E-001  2.3804709415361494E+001
       O  2.4748835369832577E+001 -3.1860205281512383E-001  2.4621916382303848E+001
       H  3.8546850938717072E+000  1.5714601259906786E+000 -1.1851184753802514E+001
       H  2.7146677038112017E+000  9.2163727746451762E-001 -1.2672099422859615E+001
       O  3.7157527146314471E+000  7.6100478004992878E-001 -1.2359054084768301E+001
       H  1.3391248023379294E+001  5.1732111727283510E+000  2.5791156070656680E+001
       H  1.2036452969593835E+001  4.6108379857318686E+000  2.5608932696313559E+001
       O  1.2401492165276482E+001  5.4611244221873827E+000  2.5835870598864208E+001
       H  1.8125837855362608E+001  1.3650706112005754E+001  3.3019335372405338E+000
       H  1.7165569128555738E+001  1.4308981656830886E+001  4.2802969924699106E+000
       O  1.7685485687882341E+001  1.3496779204330240E+001  4.1357832966905770E+000
       H  7.9086078540086850E+000 -1.1177912970973679E+001 -1.7763287017942517E+000
       H  7.2070244564180763E+000 -9.8065587458590606E+000 -1.5298464725276886E+000
       O  8.0004665142681066E+000 -1.0278015166036100E+001 -1.2291554880893907E+000
       H  3.1480539552607386E+001  3.7827379824947563E+001 -1.2354432015180936E+000
       H  3.0014586520150701E+001  3.7350171066426505E+001 -8.8228867171639069E-001
       O  3.0763451295339788E+001  3.7861955077100546E+001 -5.9460525261430430E-001
       H  1.5707488606011079E+001  2.4383201145719697E+000 -1.1423494743530554E+001
       H  1.4829888232393829E+001  1.3878660679222388E+000 -1.0673209618187194E+001
       O  1.5428302540586261E+001  1.4644384941060991E+000 -1.1414098659557229E+001
       H  1.8936245693618798E+001  8.4303196291635774E-001  5.5599000799169875E+000
       H  1.9682182121351666E+001 -3.6627723154665920E-001  6.3002685085736205E+000
       O  1.9807342217600294E+001  3.6464437044375375E-001  5.6718969687340515E+000
       H  7.2051299285714583E+000  8.9353241215545742E-001  1.6250413509048101E+001
       H  8.2066888151791346E+000  1.6678475662554308E+000  1.7100183356148190E+001
       O  8.1115347838697058E+000  1.2659610539477486E+000  1.6183273781726790E+001
       H  5.7932647701761226E+000  1.7135492188354238E+001  7.2106048845148640E+000
       H  6.3532467360493809E+000  1.5873764243135829E+001  7.8304508962493733E+000
       O  5.9832407351221564E+000  1.6715417733605918E+001  8.0784609500483864E+000
       H  1.9238668737955265E+001  2.6541035330170597E+001  6.5809388391008261E-001
       H  1.8070581128237368E+001  2.6229162795013941E+001  1.5341297128449578E+000
       O  1.8610235947430816E+001  2.7037284178481489E+001  1.2383162990832282E+000
       H  1.5884089251394977E+001  1.3226610200548262E+001  2.0422664637010204E+001
       H  1.5166527357523611E+001  1.3782382159723490E+001  1.9254470738102857E+001
       O  1.5428055392122587E+001  1.2912452323824024E+001  1.9609199226602414E+001
       H  1.0995048275307536E+001 -1.1370912386523441E+001  1.6437135183276194E+001
       H  9.8280843179061961E+000 -1.0371703186506062E+001  1.5913256626558983E+001
       O  1.0660855780801514E+001 -1.0863374319277444E+001  1.5690570911426763E+001
       H  2.5612879583406031E+001  1.4961666301027485E+001  2.2074080209359206E+001
       H  2.5179000253738725E+001  1.5756568180262907E+001  2.3295524758345852E+001
       O  2.5455102094627158E+001  1.5924046680092724E+001  2.2348596198242149E+001
       H -1.7005414425054774E+001  5.8097158975079717E+000  1.4522428854065828E+001
       H -1.5679758935254876E+001  6.1514745990543771E+000  1.4996144082658441E+001
       O -1.6604049795408823E+001  6.4663658418447802E+000  1.5132570573386793E+001
       H -8.4922197331115157E-001  5.2976229776642576E+000  5.4155328591367784E+000
       H -2.0809067776427607E-002  6.0500123844915574E+000  6.4623478702210244E+000
       O -1.5657024210995968E-001  5.9163442569201941E+000  5.4944750925509629E+000
       H -6.8058747884824404E+000 -1.6865068947623818E+001  1.8421583995780409E+001
       H -5.4466225256181824E+000 -1.6793850092480749E+001  1.7841385723983148E+001
       O -6.2157642231548653E+000 -1.6202160745950003E+001  1.7987166638229613E+001
       H  2.8358768019974814E+001  9.7006287395290052E+000  3.5141815318327524E-001
       H  2.8902984559849401E+001  9.3954248572513244E+000  1.8391283022514808E+000
       O  2.8332989508672778E+001  1.0107143411543619E+001  1.3480543804946916E+000
       H  1.2127556950016933E+001 -1.7925095270489217E+000  2.6276530015783308E+001
       H  1.0968522938218918E+001 -8.9085879838910409E-001  2.5766676038746979E+001
       O  1.1264319717259191E+001 -1.5842029570664058E+000  2.6406361566735377E+001
       H -2.4076918220006052E+000  6.6656478309409497E+000 -4.3006283504226861E+000
       H -3.6791125972744076E+000  6.6243627065374380E+000 -3.7380894353590310E+000
       O -3.2334730443194259E+000  7.1054257886171461E+000 -4.4301023295674407E+000
       H  5.1274387759821938E+000  6.4336760405673363E+000  2.7694300289043561E+000
       H  6.5034999564647338E+000  5.5188214383282661E+000  3.0073787249156543E+000
       O  5.6862460349381649E+000  5.6960264113504806E+000  2.4659882611700321E+000
       H  6.5543218540641668E-001 -1.1211608076445290E+000  4.1456093794857694E+000
       H  8.7160619645286791E-002 -2.4132691649219193E+000  3.2147244840846834E+000
       O -1.5787111207071933E-001 -1.5525091893457326E+000  3.6172034795137109E+000
       H -1.2348321957085007E+000  2.4487599963264071E+001 -5.4986440937721621E+000
       H -1.3039640536159240E+000  2.3348514220321601E+001 -4.5691522052960813E+000
       O -9.0187109762508977E-001  2.4185647875329121E+001 -4.6939957042899572E+000
       H  2.3154153761542471E+001  2.2958836988162084E+001  1.2161866255188627E+001
       H  2.4166314127333528E+001  2.2365337885530618E+001  1.3162003153406040E+001
       O  2.3195063380657373E+001  2.2422103186532560E+001  1.2978081985798577E+001
       H  2.4244886607627172E+000 -2.2640023440540450E+001 -7.9729010264814901E+000
       H  2.9041044816320403E+000 -2.1531183234296837E+001 -6.9738659831128782E+000
       O  3.0767330352801188E+000 -2.1890032395915537E+001 -7.9070429531621231E+000
       H  7.4320724100978177E+000  2.0724274250087733E+000  1.4714272256400927E+001
       H  6.2312158264282598E+000  1.9508389808196667E+000  1.3834739212894586E+001
       O  6.9522985014961618E+000  2.5150509101277949E+000  1.3977743953456359E+001
       H  1.5273613779576825E+001  1.9351877241862038E+001 -1.7628907298000613E+001
       H  1.5570643229169594E+001  2.0259896741828793E+001 -1.6254191290355060E+001
       O  1.4974221628426493E+001  1.9717823177750404E+001 -1.6738481558245958E+001
       H  1.5054890232515302E+001 -1.0221380579790576E+001 -2.1979635005810664E+001
       H  1.3819063604369079E+001 -9.8475763359249306E+000 -2.1062343659463775E+001
       O  1.4577564192256345E+001 -1.0377549132838162E+001 -2.1095713694970929E+001
       H  1.4343573961969733E+001 -1.3614199870497503E+000  2.7289827161400986E+001
       H  1.4688270843034028E+001 -3.4338103811857884E-001  2.8519662572667151E+001
       O  1.4045342732125258E+001 -1.0951636512140139E+000  2.8225613608714049E+001
       H  2.1529324067624383E+001  6.5247168660319685E+000  1.9773987646491296E+001
       H  2.1017820784064039E+001  5.5028479978595710E+000  2.0746118706370698E+001
       O  2.1613738059275256E+001  6.2538987735564096E+000  2.0701682029291540E+001
       H  1.7558870100399542E+001  2.0231229203122311E+001  1.0666277217570872E+001
       H  1.7394930891726762E+001  1.8715238009864439E+001  1.0461521451017816E+001
       O  1.7216879023184443E+001  1.9400479733484193E+001  1.1097116854876138E+001
       H  2.6624808644708837E+000  1.4543617180377979E+000  2.1216079530203040E+000
       H  2.8498686806929561E+000  4.6691917951921125E-001  3.3811236764791439E+000
       O  3.2808419529003410E+000  9.3911650084694875E-001  2.6417814872932603E+000
       H  2.1044518857983189E+001  2.2601467295339322E+001 -5.5693785552355841E+000
       H  1.9660830857956263E+001  2.3090000794163810E+001 -5.8656771096754738E+000
       O  2.0581067565857857E+001  2.3205600332127347E+001 -6.1577152320457751E+000
       H  2.6439627722058843E+000  3.3640326936479362E+001  1.5459380339562475E+001
       H  3.6323833463584778E+000  3.4155462294299063E+001  1.6722677510279023E+001
       O  3.0755244386437837E+000  3.4378782820586409E+001  1.5857795515089132E+001
       H  1.3712664719703927E+001  2.5459648089196016E+000  1.2546922801263486E+001
       H  1.3877956496458053E+001  1.9676958150457153E+000  1.4002461319311220E+001
       O  1.3768043881837235E+001  2.7867164593894942E+000  1.3484300977399071E+001
       H  1.4878869417287246E+001  1.6162216303889014E+001 -1.6573959463343922E+001
       H  1.3829532725539769E+001  1.5446791889412687E+001 -1.7336360611726153E+001
       O  1.4816455921974759E+001  1.5415554299383036E+001 -1.7126831593852007E+001
       H -9.0712148603753029E+000  1.4734032833387019E+001  7.3361416722903394E+000
       H -8.9457297779460401E+000  1.6094360333571412E+001  8.0938973987478384E+000
       O -9.4485367652040129E+000  1.5190397273367072E+001  8.0429157703770269E+000
       H  9.3156244549847820E+000  3.7680384981045840E+001  1.2874952411461603E+001
       H  9.1323908066982344E+000  3.8881386189496929E+001  1.3894774249219383E+001
       O  8.9673131325249180E+000  3.8542936637601464E+001  1.2974307385650686E+001
       H  4.9272982322236274E+000  6.1437116393309186E+000  1.9378441017040686E+001
       H  3.8983761726062718E+000  6.3468832048974519E+000  1.8079751482511366E+001
       O  4.7922782672942974E+000  6.5865681988223006E+000  1.8518421355798591E+001
       H -1.9311249522525316E+000  1.8890860635798557E+001 -9.4145460756029964E-001
       H -3.1279044206514053E+000  1.9675330657567638E+001 -1.2792237737361316E+000
       O -2.6412794560703925E+000  1.9402135253900660E+001 -5.4603229988184931E-001
       H -6.8716953059711958E+000  1.7490911748510630E+001  2.0657201244417305E+001
       H -7.2171538864294229E+000  1.7237360414243597E+001  2.2140049288367642E+001
       O -6.5248471277471820E+000  1.6990078783230274E+001  2.1449700107205150E+001
       H  1.7320785338618652E+001 -1.4871864707046691E+000  5.8316429862520378E+000
       H  1.7794339684772766E+001 -2.5142681194288303E+000  6.9191637579381231E+000
       O  1.7187525022915832E+001 -2.3800555352176218E+000  6.2032410649616958E+000
       H -3.1645836334056821E+001  1.7947257147061357E+000  2.1783373730226035E+001
       H -3.0927261400563154E+001  1.0015820032303548E+000  2.0653473433538043E+001
       O -3.0842554202489580E+001  1.3040861004881794E+000  2.1606321053599590E+001
       H  1.0039673453436668E+001  8.6669087883610469E+000  1.2073399994890517E+001
       H  1.0528450314034702E+001  7.9998386760215503E+000  1.3257422081484821E+001
       O  9.6985297749399013E+000  8.1409042038964028E+000  1.2836465076455632E+001
       H  1.5967093069611289E+001 -1.5603022792992014E+001  2.3661849691231193E+001
       H  1.5383243859399427E+001 -1.4935393378554823E+001  2.2484968801288314E+001
       O  1.6152570095404577E+001 -1.5363634785896540E+001  2.2743624946127241E+001
       H  9.3404516809457094E-001  1.3920585765570580E+001 -6.2237394590907265E+000
       H  3.9358620930781613E-001  1.5323971910768503E+001 -6.4691390529261037E+000
       O  6.8400092899957710E-001  1.4522804964224891E+001 -6.9664854458262377E+000
       H  2.0263363696581905E+001  8.0669131037966064E+000  1.7756831430700551E+001
       H  2.0153424389252329E+001  6.9267198024697541E+000  1.6643152150414572E+001
       O  1.9606626551677429E+001  7.3669715973098837E+000  1.7369991574304532E+001
       H  2.9178759085131865E+000  1.0545857208512915E+001  2.6700393954194347E+001
       H  3.1433463399252504E+000  9.3771513501214265E+000  2.6051922871005104E+001
       O  2.4547972946451155E+000  9.9357665756521900E+000  2.6134766772019120E+001
       H  4.0957754336854268E+000 -7.4799199919893837E+000 -1.6059360134998282E+000
       H  2.7892657454362073E+000 -7.9747362467876366E+000 -6.7419995140583899E-001
       O  3.1352119744214604E+000 -7.5893407888709143E+000 -1.4945638085280679E+000
       H  4.1520043157862734E+000  8.7947523742207050E+000  1.6289081245893854E+001
       H  4.1473330479905712E+000  1.0014480703763615E+001  1.5292369933763995E+001
       O  4.5568795324949720E+000  9.5236902096452596E+000  1.5992065858619828E+001
       H  6.1216172388731849E+000  2.5584276301856164E+001  3.3762814857999032E+001
       H  6.6948437447066640E+000  2.4413640154026304E+001  3.2974114619307500E+001
       O  5.9420977311711054E+000  2.4645970731878517E+001  3.3654313480279875E+001
       H  7.9509673587967979E+000  3.4925988639226112E+001 -5.7492603271679021E-001
       H  9.2403720706280748E+000  3.4135979550228534E+001 -4.6210399793550661E-001
       O  8.9067553577576888E+000  3.5051006292801503E+001 -4.1921389602363585E-001
       H  2.8189210367780165E-001  1.0747140573735182E+001  1.1928342830152696E+001
       H  1.1612018746818971E+000  1.0773189854407896E+001  1.0636739860956688E+001
       O  2.2533545247435136E-001  1.0846836046547065E+001  1.0928568818594004E+001
       H  1.5080060666328626E+001  1.3792820922832687E+001 -2.0689353221582621E+001
       H  1.5747365705950596E+001  1.5238223639852876E+001 -2.1312226638809303E+001
       O  1.5032998273102432E+001  1.4785689556320952E+001 -2.0720790220236292E+001
       H  1.2577685040829433E+001 -2.1702133497963900E+000  1.6336049630961941E+001
       H  1.3843787156253720E+001 -3.0234193129044939E+000  1.6621706281647306E+001
       O  1.3502845224921312E+001 -2.0613647535509503E+000  1.6603483340746934E+001
       H  1.5865390358889666E+001  1.0519146992440495E+001  1.9692334161972671E+001
       H  1.7082811867528925E+001  9.4388153516239228E+000  1.9850463462972424E+001
       O  1.6429622136936906E+001  1.0048728571422668E+001  2.0424023921980375E+001
       H  2.8275770529838663E+001 -1.5075090829558322E+000  2.0117531044252232E+001
       H  2.7316854900734821E+001 -6.9690927959697047E-001  2.0643751867277388E+001
       O  2.8241744161962032E+001 -8.1304727219611150E-001  2.0807633727653499E+001
       H  2.0642682035852083E+001  1.4990631014307572E+001  2.2361325804990056E+001
       H  2.0854635272857660E+001  1.6116963091375670E+001  2.1279464613197920E+001
       O  2.0624140801503145E+001  1.5151821328840724E+001  2.1372845243239855E+001
       H  1.1454124638927809E+001  5.6583884254211529E+000 -5.0974251273784823E+000
       H  1.2575808842060674E+001  4.7612274517451159E+000 -5.7427347425156947E+000
       O  1.2220797483713191E+001  5.6300385804572555E+000 -5.6268097116210232E+000
       H -2.9429119037623401E+000  1.3597146298094779E+001 -4.2117213301623835E+000
       H -3.9782664333317537E+000  1.4564221750098975E+001 -4.5989238617458721E+000
       O -3.5177959559538881E+000  1.3815369652184680E+001 -4.8906922789248499E+000
       H  8.4441903214265697E+000  8.7207642738525681E+000  1.3871500193355622E+001
       H  7.4770945841669407E+000  9.7463666008888090E+000  1.4261649222393626E+001
       O  7.5893669169748943E+000  8.7748374239516451E+000  1.4338661450534303E+001
       H -1.7253399871092476E+001 -4.9007514333524780E+000  5.6261127014317855E+000
       H -1.8142788318157915E+001 -3.9272507089062425E+000  5.3366060520726029E+000
       O -1.7273018748038830E+001 -4.0686149340625422E+000  5.1576955184324911E+000
       H -3.5635777763174897E-001  9.0917746631440668E+000 -4.1239743082707792E+000
       H -1.4867346970587485E+000  9.2490730533504930E+000 -5.0322564515198431E+000
       O -5.0841160071511327E-001  9.2995428629873853E+000 -5.0830451081263268E+000
       H  1.2997627064818545E+001  7.8710716439621979E+000  8.1890445469330277E+000
       H  1.2541786735913737E+001  9.0025038137753413E+000  7.4419328119140333E+000
       O  1.3281088140917264E+001  8.7561187911019616E+000  7.9936720251670712E+000
       H  2.0283597756277714E+000  1.1081034281129496E+001  3.6415698580598566E+000
       H  2.3038312057790451E+000  1.1508797522300643E+001  4.9872887659835170E+000
       O  2.3822637887459601E+000  1.1879757341770768E+001  4.0148487946545233E+000
       H  1.1607505639240904E+001  1.7620957526184231E+001 -8.4892801393119459E+000
       H  1.1419899584578557E+001  1.6157051723658789E+001 -8.3074420149499311E+000
       O  1.1066734413237935E+001  1.6954276320692717E+001 -7.9574178093720374E+000
       H  1.6799252050512678E+001  1.7469074001535411E+001  1.5761065106764676E+001
       H  1.7215553006371167E+001  1.6602588423864002E+001  1.7004999999084827E+001
       O  1.6694576735632936E+001  1.6629333440971070E+001  1.6188164341076902E+001
       H  4.6622284865114381E+000 -5.8285488960298668E+000 -1.2815234557347830E+001
       H  5.3618854579314403E+000 -6.0026907886184588E+000 -1.1364625880622912E+001
       O  5.1813545216339403E+000 -5.3909818372655520E+000 -1.2133514115925825E+001
       H  4.3104135908062506E+000  1.3008001996075091E+001  3.6297875592119992E+000
       H  5.0917048566320391E+000  1.1817452101443243E+001  4.0700282830927330E+000
       O  5.2265019263803589E+000  1.2782186040744707E+001  3.8833248870394166E+000
       H  1.1527163853250268E+001  7.0700173166643232E+000  1.1265977030725601E+001
       H  1.2661606994935259E+001  6.9284097918471161E+000  1.2139574228896308E+001
       O  1.2373692073270821E+001  7.5256325053971151E+000  1.1446866120837811E+001
       H  2.7643410589914943E+000  1.7525990633133572E+000 -7.2543466082419572E+000
       H  2.1364878250576327E+000  2.5387070514185217E-001 -6.8026001531397418E+000
       O  2.6144503579404792E+000  8.0566121605430574E-001 -7.4280996987019936E+000
       H  3.0231518714705290E+000  1.5074475550429071E+001  7.5969495515796277E+000
       H  2.7479175980037631E+000  1.4146843070709295E+001  8.7980989721684146E+000
       O  2.5434675274341583E+000  1.5016267073707297E+001  8.4332380687162622E+000
       H -8.0915149438365432E+000 -4.7777108085109852E+000  1.7332031802941778E+001
       H -7.5170247517441258E+000 -3.6293759133796728E+000  1.7921830671105081E+001
       O -7.4686668022975446E+000 -4.5396471719245675E+000  1.8016284215738477E+001
       H  1.7125627405870606E+001  1.2949715919531772E+000  1.5052933233552618E+001
       H  1.7701516056018981E+001  1.9939491309144683E+000  1.6285321045758376E+001
       O  1.7403807649840168E+001  2.1954723046422933E+000  1.5318838463686422E+001
       H  1.4400568586739045E+001 -3.8747244902941160E+000  2.9743036021253761E+001
       H  1.4945448634719634E+001 -4.8638112567899530E+000  2.8676863277162973E+001
       O  1.5228007955290792E+001 -4.4511666035246789E+000  2.9542931161846770E+001
       H  1.8292269310880823E+001  2.6897393700457944E-001  2.1008665014601561E+001
       H  1.8988326978639392E+001  1.6148716518672248E+000  2.0893284157204913E+001
       O  1.8085583419594347E+001  1.2103772337119187E+000  2.1293241283228777E+001
       H  1.1939352257599731E+001  2.2704612056592395E+000 -2.8272369105514374E+000
       H  1.2345166515457731E+001  2.6312560323379142E+000 -4.3728767233979218E+000
       O  1.1568903363104537E+001  2.2379911043287537E+000 -3.8030583310521786E+000
       H  9.8282938643815285E+000 -5.6993226473967935E+000 -3.7096770118102507E+000
       H  1.1024289645528324E+001 -5.8859722404095125E+000 -4.6311079938950366E+000
       O  1.0737771421503743E+001 -5.8970128872658218E+000 -3.6698305577488357E+000
       H  3.1903651114528394E+001  1.6484699862219745E+001  1.3365770020361198E+001
       H  3.2968557070222971E+001  1.5681630834961444E+001  1.2633473439845016E+001
       O  3.2818482247788360E+001  1.6356057706106661E+001  1.3299724352750500E+001
       H  2.0602691547572988E+001  8.0549060794614942E+000  9.2738800072255412E+000
       H  2.0373766063875319E+001  7.8082994974371882E+000  7.8513135285397295E+000
       O  2.0345353249646834E+001  7.3742471816957114E+000  8.7019107301528607E+000
       H  8.3441274621652166E+000 -6.4272517316294069E+000  7.4913634088941690E+000
       H  7.6976929034095161E+000 -7.3618757170630831E+000  8.5675823574459571E+000
       O  8.4772033348914295E+000 -7.1416855235955019E+000  8.1008745722351438E+000
       H -5.4967053260776115E+000  9.4293897915621638E+000  3.9354711985978099E+000
       H -5.6830790029176121E+000  8.4691077857753250E+000  2.7463591396136486E+000
       O -5.5669249592632672E+000  8.4589359242023132E+000  3.7343631809528333E+000
       H  1.6870721497085430E+001 -1.2214058402311261E+001 -1.1044647562421364E+000
       H  1.5700102331761697E+001 -1.2145012826362455E+001 -2.2678428869009670E-002