 # Version information for this restart file 
 # current date 2025-03-31 22:05:36.941
 # current working dir /ccc/scratch/cont003/gen2309/sicilana/NPT/128_H2O_4_NaCl_10_wt_673K_1000bar/BATCH_11_MD_T_673_P_1000_steps_1000_dt_0.5_NH2O_128_NaCl_4_abc_17.19_17.19_17.19_wt_9.20
 # Program compiled at                                       2024-10-31 15:04:21
 # Program compiled on                                                 topaze131
 # Program compiled for                                                   x86_64
 # Source code revision number                                                  
 &GLOBAL
   PRINT_LEVEL LOW
   PROJECT_NAME "brines"
   RUN_TYPE MD
   FLUSH_SHOULD_FLUSH T
 &END GLOBAL
 &MOTION
   &MD
     ENSEMBLE NPT_I
     STEPS 1000
     TIMESTEP  4.9999999999999994E-001
     STEP_START_VAL 26750
     TIME_START_VAL  1.3375000000006305E+004
     ECONS_START_VAL -2.4590398713531335E+003
     TEMPERATURE  6.7300000000000011E+002
     &BAROSTAT
       PRESSURE  1.0000000000000000E+003
       TIMECON  9.9999999999999989E+002
       &VELOCITY
           1.0773817408230482E-005
       &END VELOCITY
       &MASS
           4.2836593343398705E+007
       &END MASS
       &THERMOSTAT
         TYPE CSVR
         &CSVR
           TIMECON  9.6755373060191388E+001
           &THERMOSTAT_ENERGY
               1.5310871863867541E-003
           &END THERMOSTAT_ENERGY
           &RNG_INIT
 Wiener process for Thermostat # 1        1 F T F  -6.5191621632132254E-02         886741134.0         696747781.0        1395636935.0        2939923996.0        3529177960.0        2250302295.0             12345.0             12345.0             12345.0             12345.0             12345.0             12345.0             12345.0             12345.0             12345.0             12345.0             12345.0             12345.0
           &END RNG_INIT
         &END CSVR
       &END THERMOSTAT
     &END BAROSTAT
     &THERMOSTAT
       TYPE CSVR
       &CSVR
         TIMECON  9.9999999999999989E+002
         &THERMOSTAT_ENERGY
            -8.0173274925345406E-001
         &END THERMOSTAT_ENERGY
         &RNG_INIT
 Wiener process for Thermostat # 1        1 F T F   8.6963285214248218E-02        4144979449.0        3388101349.0        1632269647.0        2586945705.0        1120538044.0        3359502739.0             12345.0             12345.0             12345.0             12345.0             12345.0             12345.0             12345.0             12345.0             12345.0             12345.0             12345.0             12345.0
         &END RNG_INIT
       &END CSVR
     &END THERMOSTAT
     &AVERAGES T
       &RESTART_AVERAGES
         ITIMES_START 1
         AVECPU  2.3249882975143059E+001
         AVEHUGONIOT  0.0000000000000000E+000
         AVETEMP_BARO  3.0662651240282361E+002
         AVEPOT -2.4597227076349627E+003
         AVEKIN  1.2215051620133535E+000
         AVETEMP  6.5766472710382823E+002
         AVEKIN_QM  0.0000000000000000E+000
         AVETEMP_QM  0.0000000000000000E+000
         AVEVOL  3.8697741784700927E+004
         AVECELL_A  3.3748047851422193E+001
         AVECELL_B  3.3748047851422193E+001
         AVECELL_C  3.3748047851422193E+001
         AVEALPHA  9.0000000000000000E+001
         AVEBETA  9.0000000000000000E+001
         AVEGAMMA  9.0000000000000000E+001
         AVE_ECONS -1.3490078038882640E+002
         AVE_PRESS  4.0136481818468798E+002
         AVE_PXX  3.7753436915993785E+002
       &END RESTART_AVERAGES
     &END AVERAGES
   &END MD
   &PRINT
     &TRAJECTORY SILENT
       FILENAME =brines-1.xyz
       &EACH
         MD 1
       &END EACH
     &END TRAJECTORY
     &CELL SILENT
       FILENAME =brines-1.cell_xyz
       &EACH
         MD 1
       &END EACH
     &END CELL
     &VELOCITIES SILENT
       FILENAME =brines-1.vel
       &EACH
         MD 1
       &END EACH
     &END VELOCITIES
     &FORCES SILENT
       FILENAME =brines-1.force
       &EACH
         MD 1
       &END EACH
     &END FORCES
     &STRESS SILENT
       FILENAME =brines-1.stress
       &EACH
         MD 1
       &END EACH
     &END STRESS
     &RESTART SILENT
       FILENAME =brines-1.restart
       &EACH
         MD 1
       &END EACH
     &END RESTART
     &RESTART_HISTORY SILENT
       &EACH
         MD 50
       &END EACH
     &END RESTART_HISTORY
   &END PRINT
 &END MOTION
 &FORCE_EVAL
   METHOD QS
   STRESS_TENSOR ANALYTICAL
   &DFT
     BASIS_SET_FILE_NAME /ccc/work/cont003/gen2309/sicilana/DATA_CP2K/GTH_BASIS_SETS
     POTENTIAL_FILE_NAME /ccc/work/cont003/gen2309/sicilana/DATA_CP2K/GTH_POTENTIALS
     &SCF
       MAX_SCF 50
       EPS_SCF  9.9999999999999995E-008
       &OT T
         MINIMIZER DIIS
         PRECONDITIONER FULL_SINGLE_INVERSE
       &END OT
       &OUTER_SCF T
         EPS_SCF  9.9999999999999995E-008
         MAX_SCF 50
       &END OUTER_SCF
     &END SCF
     &QS
       EPS_DEFAULT  1.0000000000000000E-014
       EPSFIT  9.9999999999999995E-007
       EPSISO  9.9999999999999998E-013
       EPSRHO0  1.0000000000000000E-008
       QUADRATURE GC_LOG
       EXTRAPOLATION ASPC
       METHOD GAPW
     &END QS
     &MGRID
       NGRIDS 4
       CUTOFF  6.0000000000000000E+002
       REL_CUTOFF  6.0000000000000000E+001
     &END MGRID
     &XC
       DENSITY_CUTOFF  1.0000000000000000E-010
       GRADIENT_CUTOFF  1.0000000000000000E-010
       TAU_CUTOFF  1.0000000000000000E-010
       &XC_FUNCTIONAL NO_SHORTCUT
         &PBE T
           PARAMETRIZATION REVPBE
         &END PBE
       &END XC_FUNCTIONAL
       &VDW_POTENTIAL
         POTENTIAL_TYPE PAIR_POTENTIAL
         &PAIR_POTENTIAL
           R_CUTOFF  1.2000000000000000E+001
           TYPE DFTD3
           PARAMETER_FILE_NAME /ccc/work/cont003/gen2309/sicilana/DATA_CP2K/dftd3.dat
           REFERENCE_FUNCTIONAL "PBE"
           CALCULATE_C9_TERM T
           REFERENCE_C9_TERM T
           VERBOSE_OUTPUT T
           D3_EXCLUDE_KIND 3
         &END PAIR_POTENTIAL
       &END VDW_POTENTIAL
     &END XC
     &REAL_TIME_PROPAGATION
       INITIAL_WFN RT_RESTART
     &END REAL_TIME_PROPAGATION
     &PRINT
       &MO_CUBES SILENT
         WRITE_CUBE F
         NLUMO 10
         NHOMO 2
         &EACH
           MD 200
         &END EACH
       &END MO_CUBES
       &MOMENTS ON
         ADD_LAST NUMERIC
         COMMON_ITERATION_LEVELS 20000
         FILENAME =brines-1.dipoles
         REFERENCE COM
         &EACH
           MD 1
         &END EACH
       &END MOMENTS
     &END PRINT
   &END DFT
   &SUBSYS
     &CELL
       A  1.8775020223064029E+001  0.0000000000000000E+000  0.0000000000000000E+000
       B  0.0000000000000000E+000  1.8775020223064029E+001  0.0000000000000000E+000
       C  0.0000000000000000E+000  0.0000000000000000E+000  1.8775020223064029E+001
       MULTIPLE_UNIT_CELL 1 1 1
     &END CELL
     &COORD
       H  1.2845178031119994E+001  2.1759916882246070E+001  2.0257655695861025E+000
       H  1.3768465908617394E+001  2.1192895654082257E+001  2.8515214204344113E+000
       O  1.2881196260140054E+001  2.1605264223770291E+001  2.9872507580012639E+000
       H  7.9723447528882163E+000 -8.6588141290216196E+000  2.4146702077951274E+000
       H  6.5043426076802175E+000 -9.3314585925778140E+000  2.3254217823709147E+000
       O  7.0368342363326972E+000 -8.5835857845202330E+000  2.8336183896148976E+000
       H -9.4253348654920845E+000  4.7315751300872968E+001  4.6925974253181941E+001
       H -9.7357355298197206E+000  4.5813474843729857E+001  4.6499156652198316E+001
       O -9.7258891284848357E+000  4.6409208440149492E+001  4.7301328598052301E+001
       H  9.1381214141308220E+000  2.5077688633204296E+001  2.3150965837779932E+001
       H  9.1931497646881173E+000  2.3664930407495188E+001  2.3613522629344061E+001
       O  8.5546689807782954E+000  2.4467147873175513E+001  2.3603723873108340E+001
       H -1.3296558086811903E+001  4.8430537977428827E+000  8.8259284213758278E+000
       H -1.3076590719648877E+001  5.8107955201789743E+000  9.9332505503913975E+000
       O -1.3183321866454515E+001  4.9026330097084987E+000  9.8077494443458395E+000
       H  3.4319789315743890E+001  2.7015937790423461E+001 -5.7934900405676943E+000
       H  3.3675683653460744E+001  2.6599833011384504E+001 -7.1495444574151623E+000
       O  3.4063359414537871E+001  2.7308413715864130E+001 -6.6544051805595892E+000
       H -6.5772512419735776E+000  3.0450485915966077E+000  9.3147302906223217E+000
       H -5.3441268717152104E+000  4.1755878944626987E+000  9.0912218577385850E+000
       O -5.8513402724687582E+000  3.6792426974123393E+000  9.7207361075928596E+000
       H  2.4788442094481233E+001 -1.7882270068203532E+000 -4.5646638611487091E+000
       H  2.5627199245028798E+001 -6.1538387127653682E-001 -4.9234705710766349E+000
       O  2.4757133154675415E+001 -7.1122485602387941E-001 -4.4867125170610063E+000
       H  1.9859916309902154E+001  1.2385106899036229E+001  1.4880413331622941E+001
       H  2.1098106302369924E+001  1.2430912536449641E+001  1.3917379587470922E+001
       O  2.0479348953453552E+001  1.3054845062099174E+001  1.4384932854342479E+001
       H  2.3769793330626136E+001 -6.2024527133550811E-001  2.4132619762412912E+001
       H  2.5318430615565568E+001 -2.0429017943536754E-001  2.3813698422745023E+001
       O  2.4535978120612210E+001 -9.2170114938100722E-001  2.3741194679424055E+001
       H  3.2482531166903592E+000  1.4847421666616794E+000 -1.1073778316022363E+001
       H  2.5778192078325421E+000  7.2568395196867297E-001 -1.2298391480258317E+001
       O  3.4206409638935926E+000  8.9751249223680363E-001 -1.1858086316010871E+001
       H  1.3304668249679011E+001  5.8302372666394433E+000  2.5599067204370584E+001
       H  1.2211949490038680E+001  4.7427993479574528E+000  2.4997727013250561E+001
       O  1.2305290072334067E+001  5.6599130226976477E+000  2.5339791715437794E+001
       H  1.7726757297518748E+001  1.3514444253517610E+001  3.0715111639950838E+000
       H  1.6594260057644949E+001  1.4336493010446496E+001  3.7598425542335292E+000
       O  1.7046495557748830E+001  1.3447614908455719E+001  3.8240651012558193E+000
       H  7.1442213098427967E+000 -1.0735260051211254E+001 -7.0530102795927607E-001
       H  7.6107654119237438E+000 -1.0332001397829695E+001 -2.0560113618352682E+000
       O  7.9189566501038904E+000 -1.0492012268745619E+001 -1.1268538290317898E+000
       H  3.0051797678329553E+001  3.6491342272587460E+001 -9.8183136080704292E-001
       H  2.9784723009576716E+001  3.7017194749701012E+001  3.8284130472482536E-001
       O  3.0340419203278621E+001  3.7296603916040837E+001 -4.3526693129896687E-001
       H  1.5501446230438297E+001  2.5000341732196634E+000 -1.1083258791688591E+001
       H  1.4319903250723197E+001  1.7063375394053404E+000 -1.0469123926997982E+001
       O  1.5139838633966962E+001  1.6063927156771951E+000 -1.1080128875969734E+001
       H  1.8986229546678185E+001  1.0621752660476591E+000  5.7556285675721321E+000
       H  1.9064827230096412E+001 -2.6872692689923050E-001  6.1998936056590166E+000
       O  1.9561792767930022E+001  3.2696243302856592E-001  5.6031430002095810E+000
       H  8.1550946097697707E+000  5.9181618103931577E-001  1.5462714979320832E+001
       H  8.6979319311842662E+000  1.6863419898131520E+000  1.6288109326389428E+001
       O  7.9178009692667164E+000  1.1655583906141265E+000  1.6208855177527212E+001
       H  5.5594624218739304E+000  1.6652234256201226E+001  7.0974645134562442E+000
       H  5.8663904224031276E+000  1.5966071097673753E+001  8.5150099495525087E+000
       O  5.8274067660885152E+000  1.6841673322208546E+001  8.0406932632068564E+000
       H  1.8447341387852489E+001  2.6259815463648128E+001  9.4173727755740688E-001
       H  1.8376360821759103E+001  2.6791023831899011E+001  2.4108951130896319E+000
       O  1.8524805906873290E+001  2.7111862330168467E+001  1.5110150891113299E+000
       H  1.5775163821788851E+001  1.3168289697190563E+001  2.0153234685285625E+001
       H  1.5103706629689922E+001  1.3016817743187426E+001  1.8707730480618920E+001
       O  1.5364474499473113E+001  1.2533879894693678E+001  1.9510936824594438E+001
       H  1.1001592528220851E+001 -1.0968998690992546E+001  1.6589774715644488E+001
       H  9.7033762535016415E+000 -1.0599472782072276E+001  1.6091378725027440E+001
       O  1.0558341386664281E+001 -1.0823215897435455E+001  1.5723314788931635E+001
       H  2.4614407530480847E+001  1.4665466290520760E+001  2.2656063330431582E+001
       H  2.4663299503390824E+001  1.6203563327381289E+001  2.2538097839586499E+001
       O  2.5177063171105871E+001  1.5443462410999039E+001  2.2568273613289520E+001
       H -1.6731762800641810E+001  6.9003708469129021E+000  1.4003250412649482E+001
       H -1.6020814039401248E+001  5.8730644278529187E+000  1.4978559338840967E+001
       O -1.6378508327913941E+001  6.7787588543094977E+000  1.4896328711738898E+001
       H -1.1250889969050737E+000  5.6021455913784326E+000  5.6671753498506341E+000
       H  1.1737892605653511E-002  5.6233629830638936E+000  6.6785329108673546E+000
       O -1.0210216637540676E-001  5.7188800403787319E+000  5.7349310348248386E+000
       H -6.7942943252437313E+000 -1.7203881565555463E+001  1.7795928872393663E+001
       H -5.7008648968810380E+000 -1.6439328631534227E+001  1.6931527771407481E+001
       O -6.4407614396542181E+000 -1.6308590794884285E+001  1.7552896976144730E+001
       H  2.8024848398717197E+001  9.6763908637777973E+000  5.1134669997847060E-001
       H  2.8789847382717017E+001  9.2113838403066968E+000  1.8130761261507384E+000
       O  2.8222393429030021E+001  9.9041407875525032E+000  1.3977852647154525E+000
       H  1.2040585239480192E+001 -8.3707530234769345E-001  2.5936622350812016E+001
       H  1.0926640230769848E+001 -1.2105636445541559E+000  2.4975682697162874E+001
       O  1.1354800820579459E+001 -1.6212420792737163E+000  2.5754404915898881E+001
       H -2.7972544491630393E+000  6.1519566300743707E+000 -4.1452153428641667E+000
       H -4.2803825402307893E+000  6.8440849520996654E+000 -4.3664053739052475E+000
       O -3.3995922609729883E+000  6.9042471294768433E+000 -3.9368581714241540E+000
       H  5.0934333302535304E+000  5.2412220280553727E+000  2.3033746002433646E+000
       H  6.4447858739271160E+000  5.4251757796832267E+000  2.8539474516562113E+000
       O  5.8725965602059684E+000  5.7662871626410297E+000  2.1290719615062437E+000
       H  5.5655576671396179E-001 -9.3090018966471377E-001  4.1512369552816910E+000
       H -8.3044638137090143E-001 -9.4862262919767759E-001  3.8350766660161115E+000
       O -2.7646547998715170E-002 -1.3024854267895580E+000  3.4134334391495114E+000
       H -1.2677752245185470E+000  2.3772931429069633E+001 -5.5896331377618269E+000
       H -1.4911733401704192E+000  2.2809447162475529E+001 -4.3876445329116942E+000
       O -1.5178771453686983E+000  2.3754058771960949E+001 -4.5994104527546673E+000
       H  2.3657521166766863E+001  2.2287425825728043E+001  1.2101065161516493E+001
       H  2.3478581871541220E+001  2.1364017089180308E+001  1.3253071666435314E+001
       O  2.3128429306967373E+001  2.2109177114112978E+001  1.2869586562694433E+001
       H  2.4910629277008143E+000 -2.2057970252156572E+001 -7.3701034550282305E+000
       H  2.5754406763356177E+000 -2.0605547252534471E+001 -7.3805704910156971E+000
       O  2.9583673646432698E+000 -2.1370595617248334E+001 -7.8051160072775891E+000
       H  7.0899496258852173E+000  3.0329955338738319E+000  1.3572691769568399E+001
       H  7.2201613990769289E+000  1.6888256847329737E+000  1.4360245247060938E+001
       O  6.8239111026856785E+000  2.0927462550031519E+000  1.3509094105775624E+001
       H  1.4765784970525765E+001  1.9674529948726331E+001 -1.7658809960302957E+001
       H  1.5824997055693563E+001  1.9609598510816944E+001 -1.6793594130708634E+001
       O  1.4890858279862266E+001  1.9969711565976194E+001 -1.6772367169877395E+001
       H  1.4633454833465596E+001 -1.0646081624328191E+001 -2.0853608553686051E+001
       H  1.3703759931229722E+001 -9.4167537741682956E+000 -2.1097802786123779E+001
       O  1.4043311666811432E+001 -1.0087161470780737E+001 -2.0391018738921925E+001
       H  1.4487824466491208E+001 -1.0464879461009233E+000  2.7819282272885232E+001
       H  1.3687733623580401E+001 -1.7301249743187828E+000  2.8788446516665193E+001
       O  1.3664374446648722E+001 -1.5414641901353729E+000  2.7900694417741324E+001
       H  2.2009714185515584E+001  6.6825392837794055E+000  1.9353748425685094E+001
       H  2.1714469444908758E+001  5.2317885668600539E+000  1.9761895034495637E+001
       O  2.1560443660759809E+001  6.1824863868204405E+000  2.0030915936135269E+001
       H  1.6953664903397602E+001  1.9958379523672725E+001  1.1646028080731620E+001
       H  1.6611500574564342E+001  2.0152281936689157E+001  1.0182965044276052E+001
       O  1.6910607691988101E+001  1.9461463726542849E+001  1.0823098823600420E+001
       H  3.0818626191093350E+000  1.2249864605615020E+000  3.7123396331633605E+000
       H  2.2997752791919543E+000  9.9673304301974985E-001  2.4630840116644861E+000
       O  3.2149665045549392E+000  9.1255683459559611E-001  2.7652463817011004E+000
       H  2.0932572308768961E+001  2.3092208703982532E+001 -6.4579235534100690E+000
       H  1.9884694915604864E+001  2.2698079930372081E+001 -5.2564587255668025E+000
       O  2.0021384626512777E+001  2.3203036252157748E+001 -6.0651585285729395E+000
       H  2.2945621183543161E+000  3.3066862883218477E+001  1.5575984007796018E+001
       H  3.1031484627070181E+000  3.3670717818369553E+001  1.6789461725446813E+001
       O  2.7865862504302501E+000  3.3907737305701239E+001  1.5801068031228377E+001
       H  1.3261207273343992E+001  3.4776386941381667E+000  1.2272517951001694E+001
       H  1.3905914118304608E+001  3.0071811579546734E+000  1.3580600613145799E+001
       O  1.3029964916125575E+001  2.9715206418182518E+000  1.3107467979589103E+001
       H  1.3822804462713696E+001  1.5264340625969419E+001 -1.6176856271313316E+001
       H  1.4332438595429387E+001  1.4666322662148749E+001 -1.7547648276163930E+001
       O  1.4618975747142333E+001  1.5101899356543585E+001 -1.6768267098595878E+001
       H -9.2994056244365204E+000  1.4865435151942485E+001  9.1555429786052542E+000
       H -8.7181313106344742E+000  1.5836200728061803E+001  8.0651408626386978E+000
       O -9.3109719165898035E+000  1.5062492995023760E+001  8.1152726591050470E+000
       H  9.7579251773639992E+000  3.7949046446150341E+001  1.3264122903764612E+001
       H  8.4540683993805459E+000  3.8385910468941439E+001  1.2635532372839217E+001
       O  8.8802110558278269E+000  3.7597724324246343E+001  1.3000338209168342E+001
       H  5.2021919463377744E+000  6.7232928137116170E+000  1.8657051844369406E+001
       H  5.1973064528261803E+000  6.1492450454298586E+000  1.7350237389231950E+001
       O  4.6305532836849208E+000  6.6909591338274588E+000  1.7852213658162920E+001
       H -2.5634269397982070E+000  2.0392766012423198E+001 -5.5388866414155891E-001
       H -2.4483385859943692E+000  1.8879050366631350E+001 -1.1708312328337616E+000
       O -2.1984120031674621E+000  1.9486977736553726E+001 -3.9601136652549257E-001
       H -6.4400938743214757E+000  1.6783952711343648E+001  2.0530180673709104E+001
       H -5.8992519393306884E+000  1.7621241401562234E+001  2.1661779974979588E+001
       O -6.5672071055553634E+000  1.7005371492367864E+001  2.1466537848345634E+001
       H  1.6729897855755191E+001 -1.6578155458224753E+000  5.7943820044239924E+000
       H  1.7659712857171282E+001 -1.8451416416842741E+000  7.0221299804894857E+000
       O  1.7288370968155526E+001 -2.3351769025286440E+000  6.2156521062793013E+000
       H -3.1567329881552965E+001  1.2191033933132758E+000  2.1476335843088233E+001
       H -3.0605239940900010E+001  1.0476282261356813E+000  2.0375660106490230E+001
       O -3.0796769691253012E+001  1.6710679639628778E+000  2.1097261164171883E+001
       H  9.5669229762428039E+000  8.0996458999126055E+000  1.1898878123414775E+001
       H  1.0316937077690143E+001  9.1145210450110294E+000  1.3017147200297018E+001
       O  9.5029348656738009E+000  8.6690833878035054E+000  1.2683204441552501E+001
       H  1.5882928254417406E+001 -1.4510794351042593E+001  2.2881262079191490E+001
       H  1.5226518440242575E+001 -1.5799277559314239E+001  2.2440912826327999E+001
       O  1.6154565508851480E+001 -1.5390238738418557E+001  2.2586663503302187E+001
       H  9.2229502532885155E-001  1.4555606872586058E+001 -5.6247688955659383E+000
       H  1.0492000185932569E-001  1.5841389471671032E+001 -6.2571953972114640E+000
       O  6.3453665340536358E-001  1.5042968438996850E+001 -6.4364635791438118E+000
       H  1.9702666972143774E+001  8.4631978928367566E+000  1.6684473484975292E+001
       H  2.0024718076900928E+001  7.0387085563290874E+000  1.6723248350165026E+001
       O  1.9395888476399406E+001  7.6612728398620016E+000  1.7039622408569706E+001
       H  3.3396124469245669E+000  1.0743822163609476E+001  2.6716833358485363E+001
       H  3.5154532867202577E+000  9.9394674432976871E+000  2.5178983171408142E+001
       O  2.7940979235942698E+000  1.0090897428168146E+001  2.5958562460125570E+001
       H  2.9412471419816133E+000 -8.3767020889037127E+000 -1.6854472038457702E+000
       H  2.0370225312980268E+000 -7.7438145305480948E+000 -8.6451504766166898E-001
       O  2.8458240367204075E+000 -7.4893166393709620E+000 -1.3491777980401751E+000
       H  5.4819107632412303E+000  8.4292032901925147E+000  1.6228886623863616E+001
       H  4.5221110077218833E+000  8.2264145471500605E+000  1.5169571757843164E+001
       O  4.7655685692090826E+000  9.0199702127033490E+000  1.5761348741717676E+001
       H  6.4235451623644773E+000  2.4908948866027504E+001  3.2919104640101828E+001
       H  5.1420399409390720E+000  2.4091648261595111E+001  3.3013993916990529E+001
       O  5.9518282737857184E+000  2.4196123747760904E+001  3.3441342277312550E+001
       H  8.2134515502396148E+000  3.4749610474956967E+001 -7.1702653164848906E-001
       H  8.7657228136469687E+000  3.3297639790854717E+001 -8.2458162699833604E-001
       O  9.0280831977936433E+000  3.4198376711737623E+001 -6.7680622918123001E-001
       H  5.9570693890682291E-001  1.0223542859769736E+001  1.1608100039042601E+001
       H  9.1131872705944184E-001  1.1210625319625331E+001  1.0518786974820671E+001
       O  1.9832389576495918E-001  1.0714277171104587E+001  1.0875135031420065E+001
       H  1.4140458350508368E+001  1.4581753288031367E+001 -2.0970857297610326E+001
       H  1.5642230799358170E+001  1.4658252984476068E+001 -2.0921559779912862E+001
       O  1.4869156374077690E+001  1.4362988185918006E+001 -2.0396713631108089E+001
       H  1.3280707144912997E+001 -2.2017916771227259E+000  1.5644401094517445E+001
       H  1.4144026937769238E+001 -1.9426909354727211E+000  1.6858147586205902E+001
       O  1.3239025968019080E+001 -1.9427015553305729E+000  1.6569166077064516E+001
       H  1.6096547325154248E+001  1.0688064018574448E+001  1.9942054957365819E+001
       H  1.7213374357425415E+001  9.4801220838153881E+000  2.0008268424406296E+001
       O  1.6263537909491749E+001  9.7816344714062939E+000  2.0285745633963344E+001
       H  2.7844252421974904E+001 -1.8755021996179679E+000  2.0346854420000597E+001
       H  2.9036665719133076E+001 -7.7114056549818799E-001  2.0767905820729833E+001
       O  2.8148292809344778E+001 -9.1873210873536437E-001  2.0366196268832240E+001
       H  2.0438458397470168E+001  1.4954148990893698E+001  2.1601731824702785E+001
       H  1.9539534808202649E+001  1.5617814194292819E+001  2.0591438507026762E+001
       O  2.0314359882776209E+001  1.5087648287618867E+001  2.0648813985179288E+001
       H  1.1357452765919753E+001  5.8539916520795483E+000 -4.8318039744748331E+000
       H  1.1939443794238368E+001  4.4296131044376228E+000 -4.9501261645984496E+000
       O  1.1952553513818129E+001  5.2715642141935195E+000 -5.4530196089208713E+000
       H -2.6379560608806329E+000  1.2847027931203156E+001 -4.3130274067952667E+000
       H -3.1821455966095518E+000  1.4342425986752577E+001 -4.6835060826456782E+000
       O -3.3897254486267157E+000  1.3364386426407547E+001 -4.8475753393562870E+000
       H  7.8412924923145120E+000  8.7746926985652625E+000  1.3636213758794407E+001
       H  6.2774240036875293E+000  9.1610083986660378E+000  1.3430077097117463E+001
       O  6.9657610822562832E+000  8.8149052087585922E+000  1.4023677489170966E+001
       H -1.7014728106063966E+001 -5.1121769290538417E+000  5.0544787702533487E+000
       H -1.7878034470973589E+001 -3.6635901681327678E+000  5.2728276675264807E+000
       O -1.6981414085865445E+001 -4.1338013993863143E+000  4.9773319071591633E+000
       H -9.4503109741461055E-001  8.3382288808815872E+000 -4.5834684762218094E+000
       H -9.1905038355099600E-001  8.4604297089402145E+000 -6.1284919169838670E+000
       O -4.6196560690184130E-001  8.7326979720980145E+000 -5.3070509583287722E+000
       H  1.3420865303559205E+001  7.5544515287813629E+000  7.5422880241040442E+000
       H  1.2252480478931533E+001  8.6509805975647591E+000  7.9394948833541452E+000
       O  1.3204663435190438E+001  8.5045946541571027E+000  7.7572406021156075E+000
       H  1.9492658005868797E+000  1.1341455213224393E+001  3.0872724458159788E+000
       H  2.1375641487319395E+000  1.0722011502442509E+001  4.6514824100426209E+000
       O  2.4677530852847989E+000  1.1171416001659939E+001  3.9138930273926564E+000
       H  1.0653235867136640E+001  1.7383109418631339E+001 -7.6002701795435410E+000
       H  1.1258683910835396E+001  1.6008332330861560E+001 -8.2230926365675021E+000
       O  1.0956867970069800E+001  1.6494324316692605E+001 -7.4057123012120298E+000
       H  1.6497025697627329E+001  1.6721866746262737E+001  1.4766207314281729E+001
       H  1.7030802606879945E+001  1.7308661118448477E+001  1.5960867665562800E+001
       O  1.6261646770192417E+001  1.6763348002868863E+001  1.5734350129197100E+001
       H  5.5532590582842536E+000 -5.4663016718125768E+000 -1.2440071565390241E+001
       H  5.4308758152673802E+000 -6.4066549409352458E+000 -1.1301183823313361E+001
       O  5.2244853518116852E+000 -5.4836732388340392E+000 -1.1508702976120594E+001
       H  4.3456586840361497E+000  1.2265477444349393E+001  4.1483482955763291E+000
       H  5.8274065276532721E+000  1.2046205741968562E+001  3.8300501430572136E+000
       O  5.2090087420196189E+000  1.2712667380225083E+001  4.1513084713636133E+000
       H  1.1861333239476986E+001  7.4261813758466921E+000  1.0278967764987375E+001
       H  1.1715913881827683E+001  6.2657105140741036E+000  1.1406237719844595E+001
       O  1.2106587422102001E+001  7.1078272817592776E+000  1.1191209222408379E+001
       H  3.1809671348029291E+000  1.5854470832948231E+000 -7.0623135027922874E+000
       H  2.1825318211012932E+000  1.0663216549090682E+000 -7.8009900966626624E+000
       O  2.3659434496480696E+000  1.1679665280179556E+000 -6.8408671201328444E+000
       H  2.5917521574649349E+000  1.3917250375033781E+001  7.3906171048658518E+000
       H  3.3609864479757108E+000  1.3619497345920163E+001  8.6457027416975034E+000
       O  2.8143666521237152E+000  1.4369155850446656E+001  8.2388844602105582E+000
       H -7.2488701265621032E+000 -5.4221300623349178E+000  1.6953354297927330E+001
       H -7.6496660290545169E+000 -4.0695480411551337E+000  1.7709872706690764E+001
       O -6.9009255719867593E+000 -4.7742739118045625E+000  1.7626742510416310E+001
       H  1.7858984386754191E+001  2.0740420992603545E+000  1.5620393917386091E+001
       H  1.7043157309120563E+001  1.7461796026958658E+000  1.4457089614055443E+001
       O  1.7180784657693859E+001  2.4528595360377481E+000  1.5052551877989872E+001
       H  1.5412980361327543E+001 -3.8694314960721239E+000  2.8516336019634430E+001
       H  1.4408832967937911E+001 -4.9064223045276156E+000  2.8905755541145286E+001
       O  1.5173301295472715E+001 -4.4258413549611992E+000  2.9249166606452292E+001
       H  1.7812321064768103E+001  4.9519499121507232E-001  2.0051927567529045E+001
       H  1.7912812428066687E+001  1.7849481522648254E+000  2.0802100952624478E+001
       O  1.7630955459604607E+001  9.1476985892980955E-001  2.0890923414094438E+001
       H  1.1338406229118430E+001  2.8313070030966023E+000 -2.9852315641537719E+000
       H  1.1619935105900478E+001  2.3109136030239315E+000 -4.3527664658066154E+000
       O  1.1145637441364547E+001  2.1438818415837075E+000 -3.5797845406021063E+000
       H  9.7391410120590081E+000 -5.5989443936672982E+000 -3.9547039977942964E+000
       H  1.1137491215348842E+001 -5.2132578773289397E+000 -4.2778050026981065E+000
       O  1.0668744825513782E+001 -5.6664880938656212E+000 -3.6310306506255845E+000
       H  3.1675514313577079E+001  1.6255830761934554E+001  1.2498381785870754E+001
       H  3.2989915808131400E+001  1.5537940430636686E+001  1.2149814862477115E+001
       O  3.2540075001361608E+001  1.5934010938561720E+001  1.2938063045829544E+001
       H  1.9393115512228864E+001  8.1077331046647583E+000  9.4762548041292494E+000
       H  2.0335352456799967E+001  8.6683106240501271E+000  8.3385846802019667E+000
       O  1.9951209279577458E+001  7.8239329631605008E+000  8.6618907854959630E+000
       H  7.9756633268761874E+000 -6.3102663357144300E+000  7.3341435259180505E+000
       H  7.5425694345481551E+000 -7.0857861313560377E+000  8.5473193242588028E+000
       O  8.3771880836579236E+000 -6.9376556158856273E+000  8.0190115339889569E+000
       H -5.1813341872160095E+000  7.8152807773013002E+000  4.5396116104118605E+000
       H -4.8145593815760899E+000  8.5465675658377567E+000  3.2516961611031907E+000
       O -5.5404925910094329E+000  8.1448578317622768E+000  3.7288225128322505E+000
       H  1.6321886729877416E+001 -1.2878399689962549E+001 -1.8736774518868411E+000
       H  1.4926277957420114E+001 -1.2631413523870878E+001 -9.9342036117273591E-001