 # Version information for this restart file 
 # current date 2025-03-31 21:10:30.259
 # current working dir /ccc/scratch/cont003/gen2309/sicilana/NPT/128_H2O_4_NaCl_10_wt_673K_1000bar/BATCH_11_MD_T_673_P_1000_steps_1000_dt_0.5_NH2O_128_NaCl_4_abc_17.19_17.19_17.19_wt_9.20
 # Program compiled at                                       2024-10-31 15:04:21
 # Program compiled on                                                 topaze131
 # Program compiled for                                                   x86_64
 # Source code revision number                                                  
 &GLOBAL
   PRINT_LEVEL LOW
   PROJECT_NAME "brines"
   RUN_TYPE MD
   FLUSH_SHOULD_FLUSH T
 &END GLOBAL
 &MOTION
   &MD
     ENSEMBLE NPT_I
     STEPS 1000
     TIMESTEP  4.9999999999999994E-001
     STEP_START_VAL 26650
     TIME_START_VAL  1.3325000000006383E+004
     ECONS_START_VAL -2.4590398713531335E+003
     TEMPERATURE  6.7300000000000011E+002
     &BAROSTAT
       PRESSURE  1.0000000000000000E+003
       TIMECON  9.9999999999999989E+002
       &VELOCITY
          -3.9390906104752326E-006
       &END VELOCITY
       &MASS
           4.2836593343398705E+007
       &END MASS
       &THERMOSTAT
         TYPE CSVR
         &CSVR
           TIMECON  9.6755373060191388E+001
           &THERMOSTAT_ENERGY
               1.4392816428891416E-003
           &END THERMOSTAT_ENERGY
           &RNG_INIT
 Wiener process for Thermostat # 1        1 F T F   1.7180387979221510E+00         968906107.0        1197074348.0         591259876.0        1927996469.0        2606258851.0        3418062090.0             12345.0             12345.0             12345.0             12345.0             12345.0             12345.0             12345.0             12345.0             12345.0             12345.0             12345.0             12345.0
           &END RNG_INIT
         &END CSVR
       &END THERMOSTAT
     &END BAROSTAT
     &THERMOSTAT
       TYPE CSVR
       &CSVR
         TIMECON  9.9999999999999989E+002
         &THERMOSTAT_ENERGY
            -7.9220394630140056E-001
         &END THERMOSTAT_ENERGY
         &RNG_INIT
 Wiener process for Thermostat # 1        1 F T F  -8.6981299817987023E-02          68308976.0        2550447129.0         306001088.0        2592256329.0         598479347.0          52861449.0             12345.0             12345.0             12345.0             12345.0             12345.0             12345.0             12345.0             12345.0             12345.0             12345.0             12345.0             12345.0
         &END RNG_INIT
       &END CSVR
     &END THERMOSTAT
     &AVERAGES T
       &RESTART_AVERAGES
         ITIMES_START 1
         AVECPU  2.3213056415646559E+001
         AVEHUGONIOT  0.0000000000000000E+000
         AVETEMP_BARO  3.0644900096079317E+002
         AVEPOT -2.4597215434460973E+003
         AVEKIN  1.2216400490813821E+000
         AVETEMP  6.5773735100223121E+002
         AVEKIN_QM  0.0000000000000000E+000
         AVETEMP_QM  0.0000000000000000E+000
         AVEVOL  3.8677399636915790E+004
         AVECELL_A  3.3742092394862183E+001
         AVECELL_B  3.3742092394862183E+001
         AVECELL_C  3.3742092394862183E+001
         AVEALPHA  9.0000000000000000E+001
         AVEBETA  9.0000000000000000E+001
         AVEGAMMA  9.0000000000000000E+001
         AVE_ECONS -1.3403124500404041E+002
         AVE_PRESS  3.9688107551537900E+002
         AVE_PXX  3.7558151503854958E+002
       &END RESTART_AVERAGES
     &END AVERAGES
   &END MD
   &PRINT
     &TRAJECTORY SILENT
       FILENAME =brines-1.xyz
       &EACH
         MD 1
       &END EACH
     &END TRAJECTORY
     &CELL SILENT
       FILENAME =brines-1.cell_xyz
       &EACH
         MD 1
       &END EACH
     &END CELL
     &VELOCITIES SILENT
       FILENAME =brines-1.vel
       &EACH
         MD 1
       &END EACH
     &END VELOCITIES
     &FORCES SILENT
       FILENAME =brines-1.force
       &EACH
         MD 1
       &END EACH
     &END FORCES
     &STRESS SILENT
       FILENAME =brines-1.stress
       &EACH
         MD 1
       &END EACH
     &END STRESS
     &RESTART SILENT
       FILENAME =brines-1.restart
       &EACH
         MD 1
       &END EACH
     &END RESTART
     &RESTART_HISTORY SILENT
       &EACH
         MD 50
       &END EACH
     &END RESTART_HISTORY
   &END PRINT
 &END MOTION
 &FORCE_EVAL
   METHOD QS
   STRESS_TENSOR ANALYTICAL
   &DFT
     BASIS_SET_FILE_NAME /ccc/work/cont003/gen2309/sicilana/DATA_CP2K/GTH_BASIS_SETS
     POTENTIAL_FILE_NAME /ccc/work/cont003/gen2309/sicilana/DATA_CP2K/GTH_POTENTIALS
     &SCF
       MAX_SCF 50
       EPS_SCF  9.9999999999999995E-008
       &OT T
         MINIMIZER DIIS
         PRECONDITIONER FULL_SINGLE_INVERSE
       &END OT
       &OUTER_SCF T
         EPS_SCF  9.9999999999999995E-008
         MAX_SCF 50
       &END OUTER_SCF
     &END SCF
     &QS
       EPS_DEFAULT  1.0000000000000000E-014
       EPSFIT  9.9999999999999995E-007
       EPSISO  9.9999999999999998E-013
       EPSRHO0  1.0000000000000000E-008
       QUADRATURE GC_LOG
       EXTRAPOLATION ASPC
       METHOD GAPW
     &END QS
     &MGRID
       NGRIDS 4
       CUTOFF  6.0000000000000000E+002
       REL_CUTOFF  6.0000000000000000E+001
     &END MGRID
     &XC
       DENSITY_CUTOFF  1.0000000000000000E-010
       GRADIENT_CUTOFF  1.0000000000000000E-010
       TAU_CUTOFF  1.0000000000000000E-010
       &XC_FUNCTIONAL NO_SHORTCUT
         &PBE T
           PARAMETRIZATION REVPBE
         &END PBE
       &END XC_FUNCTIONAL
       &VDW_POTENTIAL
         POTENTIAL_TYPE PAIR_POTENTIAL
         &PAIR_POTENTIAL
           R_CUTOFF  1.2000000000000000E+001
           TYPE DFTD3
           PARAMETER_FILE_NAME /ccc/work/cont003/gen2309/sicilana/DATA_CP2K/dftd3.dat
           REFERENCE_FUNCTIONAL "PBE"
           CALCULATE_C9_TERM T
           REFERENCE_C9_TERM T
           VERBOSE_OUTPUT T
           D3_EXCLUDE_KIND 3
         &END PAIR_POTENTIAL
       &END VDW_POTENTIAL
     &END XC
     &REAL_TIME_PROPAGATION
       INITIAL_WFN RT_RESTART
     &END REAL_TIME_PROPAGATION
     &PRINT
       &MO_CUBES SILENT
         WRITE_CUBE F
         NLUMO 10
         NHOMO 2
         &EACH
           MD 200
         &END EACH
       &END MO_CUBES
       &MOMENTS ON
         ADD_LAST NUMERIC
         COMMON_ITERATION_LEVELS 20000
         FILENAME =brines-1.dipoles
         REFERENCE COM
         &EACH
           MD 1
         &END EACH
       &END MOMENTS
     &END PRINT
   &END DFT
   &SUBSYS
     &CELL
       A  1.8693348936733287E+001  0.0000000000000000E+000  0.0000000000000000E+000
       B  0.0000000000000000E+000  1.8693348936733287E+001  0.0000000000000000E+000
       C  0.0000000000000000E+000  0.0000000000000000E+000  1.8693348936733287E+001
       MULTIPLE_UNIT_CELL 1 1 1
     &END CELL
     &COORD
       H  1.1633535984136934E+001  2.2376750886039734E+001  2.1389684983183432E+000
       H  1.2735412047369028E+001  2.1166382927124072E+001  2.2003992466046474E+000
       O  1.2212372805215258E+001  2.1785386650422382E+001  2.7027240869645688E+000
       H  7.8960065036178930E+000 -8.3383715890918388E+000  2.5633029139031471E+000
       H  6.8652322711067777E+000 -9.4509070898406122E+000  2.6470245830857366E+000
       O  7.1231128889726687E+000 -8.6848627524711990E+000  3.1087873436190221E+000
       H -9.9527323290789305E+000  4.6912388723547636E+001  4.6104009496941764E+001
       H -8.9039269309271845E+000  4.5892176573010438E+001  4.6252970773888293E+001
       O -9.7402833445032631E+000  4.6140339559634569E+001  4.6635610201112527E+001
       H  8.7696638005842935E+000  2.4717565778765923E+001  2.3079722913646116E+001
       H  8.5179426330738401E+000  2.3483058275360882E+001  2.4067478797315893E+001
       O  8.2188048699455614E+000  2.3934324580755064E+001  2.3293363886913291E+001
       H -1.2635647065225703E+001  4.8036738892713320E+000  8.4543347145457410E+000
       H -1.2326678547483414E+001  6.0346951838133087E+000  9.5011319445510019E+000
       O -1.2288408872222613E+001  5.0122976004256463E+000  9.3270709692365141E+000
       H  3.3744532583461904E+001  2.7982055866998063E+001 -6.1245186491541146E+000
       H  3.2771962176577361E+001  2.7040487512913455E+001 -6.7257429163200673E+000
       O  3.3737714455976274E+001  2.7043449055418925E+001 -6.5164966966914672E+000
       H -6.1672968673517738E+000  4.1655543671528203E+000  9.3029692410704516E+000
       H -4.8235572066542192E+000  4.4425019834003212E+000  9.7342453885114466E+000
       O -5.5024789423377953E+000  3.7065994736600749E+000  9.7691174532946441E+000
       H  2.5019499412431362E+001 -1.2119412334481203E+000 -5.0263110699903786E+000
       H  2.5372221457919125E+001 -2.7363509308990641E-001 -3.7647560925053813E+000
       O  2.4684302550373015E+001 -7.6519481456630389E-001 -4.3019223905461246E+000
       H  2.0316684791618464E+001  1.2539682219829547E+001  1.4980576837679978E+001
       H  2.1236121784461780E+001  1.2623417732506667E+001  1.3698094507450911E+001
       O  2.0566983854944894E+001  1.3032507330726396E+001  1.4242222029970714E+001
       H  2.3851940028519280E+001 -4.6698256501421614E-001  2.2823437550203113E+001
       H  2.5115124840777209E+001 -1.2334268435868450E+000  2.2994354100240471E+001
       O  2.4373958218691410E+001 -1.0773498112956557E+000  2.3492934239120135E+001
       H  3.1912892372721715E+000  1.1809269083514582E+000 -1.0600554461843087E+001
       H  2.4215136524081555E+000  1.1142955278525140E+000 -1.1840440510841802E+001
       O  3.2589454421533000E+000  8.3757496648057217E-001 -1.1480599424882541E+001
       H  1.3345390565522360E+001  5.3699998942540264E+000  2.5062838072646969E+001
       H  1.2427712474691909E+001  4.8411817712661041E+000  2.3989152534956428E+001
       O  1.2413540990739989E+001  5.4254229402567455E+000  2.4788453561092695E+001
       H  1.7380175634462006E+001  1.4307728756066965E+001  3.4579872977371604E+000
       H  1.6541339393263758E+001  1.3307313692972834E+001  4.2498195378323897E+000
       O  1.6770683673971067E+001  1.3567722482303443E+001  3.3841338561305996E+000
       H  7.2590751574676649E+000 -1.0213817841000800E+001 -4.7525009822964748E-001
       H  7.2748792480189097E+000 -1.1325047787011952E+001 -1.6096076969762507E+000
       O  7.8609066133105445E+000 -1.0649464675422525E+001 -1.1548895701859239E+000
       H  3.0622489818610106E+001  3.7201580526867147E+001 -8.6198377101216073E-001
       H  2.9463640773173175E+001  3.7702087060554511E+001  2.2212025253719261E-002
       O  2.9946310482154324E+001  3.6961358465612818E+001 -2.7362945920020509E-001
       H  1.5703179877123564E+001  2.5365286056631393E+000 -1.0924423137157502E+001
       H  1.4225889709892403E+001  2.5216958390092068E+000 -1.0617430846771848E+001
       O  1.4919147103245312E+001  1.9295079869512655E+000 -1.0711927609773749E+001
       H  1.8895110233799524E+001  5.1573090472246896E-001  5.3900679288968298E+000
       H  2.0042058094552257E+001 -1.3962878855449123E-001  6.3640864526753722E+000
       O  1.9808333222083487E+001  6.0386360678697049E-001  5.7754925310181937E+000
       H  8.6615910853527396E+000  5.2138943864996246E-001  1.7056488850108909E+001
       H  8.5400597474983062E+000  1.7921791906014017E+000  1.6083491053308357E+001
       O  8.1211460676471567E+000  9.0683809826724782E-001  1.6342588947098704E+001
       H  5.1243793176439993E+000  1.7058332061727736E+001  7.1210764205515167E+000
       H  5.6946803336762191E+000  1.5852826744670519E+001  7.6792708231664140E+000
       O  5.3558010983287545E+000  1.6691558123860471E+001  7.9540481227365829E+000
       H  1.8376336491740638E+001  2.6448711627913305E+001  1.1589891521055862E+000
       H  1.9632725444604063E+001  2.6244256224226973E+001  2.0405761806834444E+000
       O  1.8892107331190886E+001  2.6841401303748878E+001  1.8099581808555878E+000
       H  1.5608274218336000E+001  1.2879047037345071E+001  2.0020784798776116E+001
       H  1.5708955182796204E+001  1.2598410003277687E+001  1.8557391168597704E+001
       O  1.5593154519289625E+001  1.2148746296313247E+001  1.9430481988573561E+001
       H  1.1229898320197371E+001 -1.1424265316362318E+001  1.6516427377665774E+001
       H  9.6537151645720236E+000 -1.0970681767967591E+001  1.6181011860538050E+001
       O  1.0600866085048565E+001 -1.0930965844673592E+001  1.5918981624474773E+001
       H  2.5222219084621980E+001  1.4803526436803249E+001  2.1915259660184745E+001
       H  2.4388310610558158E+001  1.5370472796615061E+001  2.3073803091273525E+001
       O  2.5287949812672185E+001  1.4859753561647347E+001  2.2885539853240413E+001
       H -1.6146233086325523E+001  7.6561305402019455E+000  1.3971748367059242E+001
       H -1.6738798113357991E+001  6.3094690127745405E+000  1.4205132377600643E+001
       O -1.6281782787396441E+001  6.9937269233956600E+000  1.4696473115999579E+001
       H -6.5925169637930037E-001  5.3876175157275696E+000  6.7147094084448860E+000
       H  5.2755142923440801E-001  6.2592036657929988E+000  6.3587247128840048E+000
       O -1.0245134481250445E-001  5.6232076443766346E+000  5.9849680426501406E+000
       H -6.0207649590298944E+000 -1.6097804826541051E+001  1.8401080873703460E+001
       H -6.0152753796769902E+000 -1.6963068624587482E+001  1.7201005972787041E+001
       O -6.6294939371565027E+000 -1.6379605717234050E+001  1.7717628078093135E+001
       H  2.8081317601419418E+001  8.9652921925075901E+000  5.1586838676242519E-001
       H  2.8699710900770569E+001  9.0562358523274167E+000  1.9640912712636818E+000
       O  2.8314978118610131E+001  9.5881448584282278E+000  1.2854961937781106E+000
       H  1.2196752950373215E+001 -1.6453446040855495E+000  2.5707088005602561E+001
       H  1.0930716911070659E+001 -9.6557825687545584E-001  2.5103550073801884E+001
       O  1.1353460060506377E+001 -1.7873025451426883E+000  2.5323154619597780E+001
       H -3.1995104257859075E+000  6.2594388601823665E+000 -4.2511078686629737E+000
       H -4.6271116850668816E+000  6.6012914338642847E+000 -4.1466575863513517E+000
       O -3.7524255146684187E+000  6.9464466130119797E+000 -3.8239105053387994E+000
       H  6.5027087147920879E+000  4.9633746035916850E+000  2.0465180211699061E+000
       H  6.8078551319800038E+000  6.5101473504477854E+000  1.7998408714699117E+000
       O  6.1126273482983420E+000  5.8672163437030536E+000  1.7684165949558266E+000
       H  1.0929309488180767E+000 -1.1442493245375520E+000  3.1433556889305017E+000
       H -4.1299688232866283E-001 -9.3261507274321387E-001  2.8345974546303583E+000
       O  2.2475324903074725E-001 -1.5952828994351389E+000  3.0730673720925399E+000
       H -1.3056125935787490E+000  2.3530313496990338E+001 -4.9654981898379438E+000
       H -2.5258846834266677E+000  2.2714347658671286E+001 -4.4950914227206331E+000
       O -2.2168636896638043E+000  2.3600047299210505E+001 -4.7734332394582459E+000
       H  2.2858489635633180E+001  2.2429999378280129E+001  1.1713171683062711E+001
       H  2.3554480076626856E+001  2.1284601288300415E+001  1.2502910619960796E+001
       O  2.3053145035393335E+001  2.2177730423090573E+001  1.2669136460427749E+001
       H  1.9836689675415919E+000 -2.0752687388510203E+001 -7.4004541260370367E+000
       H  3.2323902576263475E+000 -1.9805968730391875E+001 -7.3433157081704969E+000
       O  2.9968180432538043E+000 -2.0735025100613612E+001 -7.5914501720880043E+000
       H  7.0586891072176678E+000  1.6423324490456193E+000  1.2538513251398079E+001
       H  7.4578428629337088E+000  2.9087686913657156E+000  1.3239946633716057E+001
       O  6.8796314597430648E+000  2.1763316916811912E+000  1.3324756656600107E+001
       H  1.4434742627524491E+001  1.8973023726509890E+001 -1.6952120327264890E+001
       H  1.4817415752483150E+001  2.0471605753986843E+001 -1.6365737498087839E+001
       O  1.4682508603941704E+001  1.9926461169490242E+001 -1.7122039347641874E+001
       H  1.4237854031199808E+001 -9.3056389038084006E+000 -1.9570923851228198E+001
       H  1.3325953491474055E+001 -9.4881621176505604E+000 -2.0772080921092297E+001
       O  1.3563947410345524E+001 -9.9567742113286997E+000 -1.9993688394877033E+001
       H  1.4253743439372943E+001 -1.2692388192313619E+000  2.7638639367764970E+001
       H  1.3053069372808757E+001 -1.4127101347663733E+000  2.8724140664092143E+001
       O  1.3609662567450172E+001 -1.9059487996910265E+000  2.7967517488811538E+001
       H  2.1671305327414295E+001  6.1259460306512157E+000  1.8589094431778754E+001
       H  2.1171645073268643E+001  5.1695857707666395E+000  1.9752546541553265E+001
       O  2.1450690369546741E+001  6.0569428014442783E+000  1.9582789266328284E+001
       H  1.6068844126577698E+001  2.0406807069812224E+001  1.1547332077645187E+001
       H  1.5956977261420080E+001  2.0199931797603558E+001  9.9938889304440206E+000
       O  1.6525895258726486E+001  2.0045830096835324E+001  1.0780929654057331E+001
       H  2.4011174491361826E+000  1.0524767186691473E+000  3.6924234083168814E+000
       H  3.4908524065261788E+000  1.7890858393698619E+000  2.8463823034297446E+000
       O  3.0578580193626776E+000  9.2065290684377310E-001  3.0284150678590156E+000
       H  1.9049784399092079E+001  2.3059355780660553E+001 -6.4611048436358383E+000
       H  2.0389988294790989E+001  2.2593358927258013E+001 -6.2579465081649559E+000
       O  1.9815818502178782E+001  2.3327421335434643E+001 -5.9475703060858782E+000
       H  2.5505538243099206E+000  3.3193254315587538E+001  1.5330742357051314E+001
       H  3.4288978568507442E+000  3.3570304823971867E+001  1.6683507194653753E+001
       O  2.7316478118764445E+000  3.3911691039954299E+001  1.6082150173762372E+001
       H  1.2135674753713298E+001  2.9255931860565969E+000  1.2101856348964107E+001
       H  1.3495217755680326E+001  3.4299890154224841E+000  1.2555217978390148E+001
       O  1.2915865883902118E+001  2.7037665592104219E+000  1.2628402190409519E+001
       H  1.5014970902334067E+001  1.4548390270530005E+001 -1.6074956203573755E+001
       H  1.4614057343649073E+001  1.5034766834051101E+001 -1.7431752209658857E+001
       O  1.4303806843681548E+001  1.5094012981919624E+001 -1.6481775587433976E+001
       H -9.8004062006792996E+000  1.5311387643124224E+001  8.4672932334153437E+000
       H -8.4916760810015148E+000  1.5609893067359430E+001  7.6108239756464275E+000
       O -9.0766767834533262E+000  1.4961935597119002E+001  8.0688828123636451E+000
       H  9.0829165574692894E+000  3.7680673703033008E+001  1.3718634484491353E+001
       H  8.0553175890207402E+000  3.6810483095339080E+001  1.2904211999434887E+001
       O  8.9927559932066536E+000  3.6986395235645546E+001  1.3024356632673632E+001
       H  5.1594624175807935E+000  6.2121917293897351E+000  1.8308790616569301E+001
       H  5.3243306690471703E+000  6.0080924710677142E+000  1.6723597074540091E+001
       O  5.0551964437624157E+000  6.6395352807971308E+000  1.7451815062212098E+001
       H -2.8657891522309873E+000  1.9453969929659859E+001 -7.2187670540816240E-001
       H -1.8430267311710142E+000  1.8834623408574419E+001 -1.4712753103903800E+000
       O -1.9218433725967561E+000  1.9458374361261672E+001 -7.5643699084879368E-001
       H -6.0877209356575630E+000  1.7092519704684364E+001  2.0693896535314934E+001
       H -5.9342245869765984E+000  1.6675489584952597E+001  2.2209239370464232E+001
       O -6.5026944199784440E+000  1.7298792277076743E+001  2.1555481613952377E+001
       H  1.7258765814503018E+001 -1.8453370705302024E+000  5.5186269885931427E+000
       H  1.7905336250173281E+001 -1.7303837269549283E+000  6.9992189810804994E+000
       O  1.7418372839012413E+001 -2.3517531391110258E+000  6.3544580912997723E+000
       H -3.0956622382096931E+001  1.0909497818281284E+000  2.0417573252550547E+001
       H -3.0991238582821804E+001  2.0277014232404080E+000  2.1738081393716811E+001
       O -3.1032726979736996E+001  2.0239076833189968E+000  2.0785599506962534E+001
       H  9.7718011713095656E+000  9.0079035347342558E+000  1.1620575447023255E+001
       H  1.0242840513014912E+001  9.2396865368340375E+000  1.3000428585138170E+001
       O  9.4342482194203843E+000  9.2858053903803270E+000  1.2481224878341008E+001
       H  1.6602556782186632E+001 -1.5591222043500858E+001  2.1819358145364902E+001
       H  1.5709524549227865E+001 -1.4559926456664547E+001  2.2635565840937911E+001
       O  1.6250486560239217E+001 -1.5303785785243628E+001  2.2706537009551017E+001
       H  1.2454705654432694E+000  1.5055185518521569E+001 -5.1860733749934846E+000
       H  1.4144899847619669E-001  1.6089976346610712E+001 -5.4407446022143366E+000
       O  5.5398328199330549E-001  1.5280105118982492E+001 -5.8121774582491073E+000
       H  1.9381248062877660E+001  8.9979960696511956E+000  1.7408315235176527E+001
       H  2.0101890224312232E+001  8.0382850603984419E+000  1.6355525289937855E+001
       O  1.9253810016895393E+001  8.1049855366466197E+000  1.6908685661071392E+001
       H  3.3129913964271434E+000  1.0937081375117474E+001  2.5810921711507337E+001
       H  3.5479014747014284E+000  9.4825876236346804E+000  2.5739465781283275E+001
       O  2.8739669124006864E+000  1.0032839147629774E+001  2.5503209858625581E+001
       H  3.3690772065376895E+000 -8.2380896238791799E+000 -2.0661575719301064E+000
       H  2.1001876754536570E+000 -7.4655337408008950E+000 -1.2838319885789493E+000
       O  2.9593392452696947E+000 -7.3949958779882738E+000 -1.7177223938229460E+000
       H  4.7722996439220831E+000  8.2314122266890095E+000  1.5201991164313217E+001
       H  3.6429707147431594E+000  8.3266131401148549E+000  1.6113188188722532E+001
       O  4.4343147661115907E+000  8.8302736180942230E+000  1.5846355928695838E+001
       H  6.1650668931224901E+000  2.5005848538858370E+001  3.3239215903031663E+001
       H  5.3640675470937866E+000  2.3711437237984928E+001  3.2857089781617077E+001
       O  5.9923248742023585E+000  2.4132834582402818E+001  3.3535498758351601E+001
       H  8.7737376699605480E+000  3.3856504505845628E+001 -1.7480952482558665E+000
       H  8.4281220328825537E+000  3.4082637922038444E+001 -3.1342216321943245E-001
       O  9.1017180845454302E+000  3.3606459404628716E+001 -8.7556032111692050E-001
       H  4.0560064424883735E-001  1.0558273283135621E+001  1.1807539406722906E+001
       H  1.0970456644945117E+000  1.1048353104213264E+001  1.0453176991618863E+001
       O  2.1325103190003891E-001  1.0697543941652873E+001  1.0875081533219115E+001
       H  1.3976144516710228E+001  1.3696132775591435E+001 -1.9940868105530832E+001
       H  1.5146931287043301E+001  1.4175513178682936E+001 -2.0877071433638068E+001
       O  1.4906045591314353E+001  1.3848125398460265E+001 -1.9983815813931066E+001
       H  1.3142884270491912E+001 -2.6815804072153706E+000  1.5906043987956380E+001
       H  1.3385571833287591E+001 -2.2163624666320287E+000  1.7390385031603749E+001
       O  1.3186829382884326E+001 -1.8827705862609034E+000  1.6469099098169728E+001
       H  1.6086128203948963E+001  1.0338665308828192E+001  1.9939491889551277E+001
       H  1.6582394257222621E+001  9.2622280368526777E+000  2.0846746831703012E+001
       O  1.5829799401453251E+001  9.6370216805274769E+000  2.0594122238239098E+001
       H  2.8359066929348405E+001 -1.6412805864682711E+000  1.9629720769818590E+001
       H  2.9167068875031916E+001 -1.3159241816637051E+000  2.0737528245858730E+001
       O  2.8252254825913369E+001 -1.0754472198974241E+000  2.0414145402649694E+001
       H  2.0367671638721632E+001  1.4432662401701627E+001  2.0831182929559560E+001
       H  1.9260971104156038E+001  1.5481936290382214E+001  2.0677002912604916E+001
       O  2.0032952607144278E+001  1.5090559647797885E+001  2.0182311442734115E+001
       H  1.1162319242427298E+001  6.4300902946758001E+000 -4.8464581473381347E+000
       H  1.1464966124971321E+001  5.1026231429450606E+000 -4.1628911664682366E+000
       O  1.1458378792801922E+001  5.5694876616076190E+000 -5.0001352311582039E+000
       H -2.3102108737312186E+000  1.2646793624464257E+001 -4.6356192875056461E+000
       H -3.0999892027990472E+000  1.3889799667150157E+001 -4.6101705425045481E+000
       O -3.0888425652528131E+000  1.2990101648823803E+001 -4.9313567656324260E+000
       H  7.3340003782251779E+000  7.8628265014210994E+000  1.3496836128185944E+001
       H  6.3584528365664630E+000  8.9659115894571446E+000  1.3613532709835054E+001
       O  6.7070490910518616E+000  8.2530339112785640E+000  1.4169639541664980E+001
       H -1.7255429274366307E+001 -4.5480213590874872E+000  5.4490437732164025E+000
       H -1.7422780247495190E+001 -3.2551932060824758E+000  4.9005683551582262E+000
       O -1.6798113652550892E+001 -3.9847493197446631E+000  4.7572584324943685E+000
       H -5.3764005752559085E-001  8.2459876554142078E+000 -4.6707309032294555E+000
       H -1.2596392226232835E+000  8.0137138026697148E+000 -6.0390958889873376E+000
       O -3.6656056584442598E-001  8.1610419104673770E+000 -5.6582070778108733E+000
       H  1.3936031485012105E+001  7.6354491235551016E+000  7.1654401503150682E+000
       H  1.2707548791945534E+001  8.4438149954861608E+000  7.0734084760439151E+000
       O  1.3474307835790523E+001  8.3862376333854751E+000  7.6596952023548646E+000
       H  2.2775770105195252E+000  1.1269368894840586E+001  3.0321651197712041E+000
       H  2.3448013726764909E+000  9.8099063501392845E+000  3.2303074499335076E+000
       O  2.4749244463790041E+000  1.0627736860906221E+001  3.7664161976669073E+000
       H  1.0695084319841847E+001  1.6887405953935218E+001 -6.3511135394206555E+000
       H  1.0089078395338651E+001  1.6311725974315618E+001 -7.4379236403164555E+000
       O  1.0980385300034275E+001  1.6287245343859098E+001 -7.0558149196167612E+000
       H  1.5678390139146991E+001  1.7660894026031780E+001  1.4542789003905931E+001
       H  1.7014202727236761E+001  1.7343836908968825E+001  1.5342294031509237E+001
       O  1.6049096881807561E+001  1.7167558219939078E+001  1.5268460668642273E+001
       H  5.4961266277212584E+000 -5.5256510399674257E+000 -1.2248672958458494E+001
       H  5.6128000968471898E+000 -6.0714859538032568E+000 -1.0732098074019266E+001
       O  5.7784736323444053E+000 -5.3413828074086824E+000 -1.1334509885013283E+001
       H  4.9953312928283138E+000  1.1609010177045915E+001  3.9972167863329782E+000
       H  6.2102737918166095E+000  1.2562283556119306E+001  4.2892750507481070E+000
       O  5.2615746108971555E+000  1.2431777659116067E+001  4.5046095415598026E+000
       H  1.2614308668128247E+001  7.1230795510815250E+000  1.0025091488779099E+001
       H  1.2540651114210865E+001  6.2621029714512151E+000  1.1242920117904584E+001
       O  1.2030776875805984E+001  7.0006114020181833E+000  1.0787827604637281E+001
       H  2.5668465822662525E+000  1.9330429729211660E+000 -7.3268786323972357E+000
       H  1.3496236811987143E+000  1.0624633320086783E+000 -6.5905510383665247E+000
       O  2.2470740464728980E+000  1.4353934433185782E+000 -6.4924018797187104E+000
       H  3.7156588662809291E+000  1.3793499247417175E+001  7.6170854147554570E+000
       H  2.8450975868148616E+000  1.3587560346844420E+001  8.8504693196745716E+000
       O  2.9344806324135972E+000  1.4151008691655340E+001  8.0924041366238555E+000
       H -6.6905862476239273E+000 -5.4764141080498243E+000  1.6803359796839942E+001
       H -6.7984236752567719E+000 -4.2088239712082229E+000  1.7422523193920846E+001
       O -6.4697607964059598E+000 -5.0557576518514180E+000  1.7634585810361830E+001
       H  1.8010055051715568E+001  2.7921081118881315E+000  1.5471989668056215E+001
       H  1.7354006530301675E+001  1.4617248829849849E+000  1.5296209000493546E+001
       O  1.7405447742350283E+001  2.3554371080976573E+000  1.4817806294884299E+001
       H  1.4999918293560969E+001 -3.3321794892260903E+000  2.8814692545953523E+001
       H  1.4610826323094749E+001 -4.7777645411082688E+000  2.8763639229389572E+001
       O  1.5404557171107445E+001 -4.2312338655035111E+000  2.8998755929990310E+001
       H  1.7203066933040688E+001  9.9837388698541540E-001  1.9978221948904245E+001
       H  1.8300991855554091E+001  1.8176236716774361E+000  2.0771169038541402E+001
       O  1.7601484137389686E+001  1.0881364086077723E+000  2.0859710321970613E+001
       H  1.0764020525022048E+001  2.2846883882327238E+000 -3.0344545834123471E+000
       H  1.1203139755149294E+001  2.0779606410651330E+000 -4.4482096843064562E+000
       O  1.0494688931857262E+001  1.8435929182029704E+000 -3.7613938101592068E+000
       H  9.8455711434351176E+000 -5.2904234123791776E+000 -3.7361476375313289E+000
       H  1.0949602067416851E+001 -5.8336043107535716E+000 -4.9994313393494521E+000
       O  1.0762634054090450E+001 -5.6473572482176024E+000 -3.9586157703832892E+000
       H  3.1613859642166297E+001  1.5413750152263042E+001  1.2709279853389374E+001
       H  3.2966631203759590E+001  1.4949882032728752E+001  1.2136704345984729E+001
       O  3.2526200948664595E+001  1.5643155039915099E+001  1.2629356906613147E+001
       H  1.9562387421533430E+001  8.8656593765173657E+000  9.3925086722737703E+000
       H  2.0130527723222269E+001  8.9442453740571946E+000  7.9346264149066243E+000
       O  1.9598054161836419E+001  8.3695650613685739E+000  8.5903515212421073E+000
       H  8.8391866087556394E+000 -6.3555791669883641E+000  8.3644057557607390E+000
       H  7.3634017789394228E+000 -6.4480273214038091E+000  7.8879266211123662E+000
       O  8.1853678650914929E+000 -6.9428032625316947E+000  8.0468689139141620E+000
       H -5.4199910599380203E+000  7.1777753313487507E+000  4.5176835535683431E+000
       H -5.2994823711075094E+000  8.7204696891361930E+000  4.2311407499041147E+000
       O -5.6431924441088004E+000  7.8759240532873891E+000  3.8268520273722677E+000
       H  1.5060764836392803E+001 -1.2878093631628266E+001 -2.4278566667512123E+000
       H  1.4835233492649172E+001 -1.3863614298902414E+001 -1.4562805207163574E+000