 # Version information for this restart file 
 # current date 2025-03-31 16:53:49.687
 # current working dir /ccc/scratch/cont003/gen2309/sicilana/NPT/128_H2O_4_NaCl_10_wt_673K_1000bar/BATCH_11_MD_T_673_P_1000_steps_1000_dt_0.5_NH2O_128_NaCl_4_abc_17.19_17.19_17.19_wt_9.20
 # Program compiled at                                       2024-10-31 15:04:21
 # Program compiled on                                                 topaze131
 # Program compiled for                                                   x86_64
 # Source code revision number                                                  
 &GLOBAL
   PRINT_LEVEL LOW
   PROJECT_NAME "brines"
   RUN_TYPE MD
   FLUSH_SHOULD_FLUSH T
 &END GLOBAL
 &MOTION
   &MD
     ENSEMBLE NPT_I
     STEPS 1000
     TIMESTEP  4.9999999999999994E-001
     STEP_START_VAL 26200
     TIME_START_VAL  1.3100000000006728E+004
     ECONS_START_VAL -2.4590398713531335E+003
     TEMPERATURE  6.7300000000000011E+002
     &BAROSTAT
       PRESSURE  1.0000000000000000E+003
       TIMECON  9.9999999999999989E+002
       &VELOCITY
           1.1185427098267346E-006
       &END VELOCITY
       &MASS
           4.2836593343398705E+007
       &END MASS
       &THERMOSTAT
         TYPE CSVR
         &CSVR
           TIMECON  9.6755373060191388E+001
           &THERMOSTAT_ENERGY
               7.1656713880165451E-004
           &END THERMOSTAT_ENERGY
           &RNG_INIT
 Wiener process for Thermostat # 1        1 F T F   9.5165330188655459E-02         845304598.0        2825857581.0        1763772418.0        1990072013.0         628451877.0         260144026.0             12345.0             12345.0             12345.0             12345.0             12345.0             12345.0             12345.0             12345.0             12345.0             12345.0             12345.0             12345.0
           &END RNG_INIT
         &END CSVR
       &END THERMOSTAT
     &END BAROSTAT
     &THERMOSTAT
       TYPE CSVR
       &CSVR
         TIMECON  9.9999999999999989E+002
         &THERMOSTAT_ENERGY
            -8.0272298354107474E-001
         &END THERMOSTAT_ENERGY
         &RNG_INIT
 Wiener process for Thermostat # 1        1 F T F  -1.0820792917409798E-01         817216313.0        2709221391.0        3453145732.0        3876478839.0        1811489148.0        1872122117.0             12345.0             12345.0             12345.0             12345.0             12345.0             12345.0             12345.0             12345.0             12345.0             12345.0             12345.0             12345.0
         &END RNG_INIT
       &END CSVR
     &END THERMOSTAT
     &AVERAGES T
       &RESTART_AVERAGES
         ITIMES_START 1
         AVECPU  2.3023948458790379E+001
         AVEHUGONIOT  0.0000000000000000E+000
         AVETEMP_BARO  3.0753032776245402E+002
         AVEPOT -2.4597163047267190E+003
         AVEKIN  1.2225519309967980E+000
         AVETEMP  6.5822831296432582E+002
         AVEKIN_QM  0.0000000000000000E+000
         AVETEMP_QM  0.0000000000000000E+000
         AVEVOL  3.8575052075253610E+004
         AVECELL_A  3.3712397943002578E+001
         AVECELL_B  3.3712397943002578E+001
         AVECELL_C  3.3712397943002578E+001
         AVEALPHA  9.0000000000000000E+001
         AVEBETA  9.0000000000000000E+001
         AVEGAMMA  9.0000000000000000E+001
         AVE_ECONS -1.3003440732752009E+002
         AVE_PRESS  3.8835081946948634E+002
         AVE_PXX  3.6329833535323422E+002
       &END RESTART_AVERAGES
     &END AVERAGES
   &END MD
   &PRINT
     &TRAJECTORY SILENT
       FILENAME =brines-1.xyz
       &EACH
         MD 1
       &END EACH
     &END TRAJECTORY
     &CELL SILENT
       FILENAME =brines-1.cell_xyz
       &EACH
         MD 1
       &END EACH
     &END CELL
     &VELOCITIES SILENT
       FILENAME =brines-1.vel
       &EACH
         MD 1
       &END EACH
     &END VELOCITIES
     &FORCES SILENT
       FILENAME =brines-1.force
       &EACH
         MD 1
       &END EACH
     &END FORCES
     &STRESS SILENT
       FILENAME =brines-1.stress
       &EACH
         MD 1
       &END EACH
     &END STRESS
     &RESTART SILENT
       FILENAME =brines-1.restart
       &EACH
         MD 1
       &END EACH
     &END RESTART
     &RESTART_HISTORY SILENT
       &EACH
         MD 50
       &END EACH
     &END RESTART_HISTORY
   &END PRINT
 &END MOTION
 &FORCE_EVAL
   METHOD QS
   STRESS_TENSOR ANALYTICAL
   &DFT
     BASIS_SET_FILE_NAME /ccc/work/cont003/gen2309/sicilana/DATA_CP2K/GTH_BASIS_SETS
     POTENTIAL_FILE_NAME /ccc/work/cont003/gen2309/sicilana/DATA_CP2K/GTH_POTENTIALS
     &SCF
       MAX_SCF 50
       EPS_SCF  9.9999999999999995E-008
       &OT T
         MINIMIZER DIIS
         PRECONDITIONER FULL_SINGLE_INVERSE
       &END OT
       &OUTER_SCF T
         EPS_SCF  9.9999999999999995E-008
         MAX_SCF 50
       &END OUTER_SCF
     &END SCF
     &QS
       EPS_DEFAULT  1.0000000000000000E-014
       EPSFIT  9.9999999999999995E-007
       EPSISO  9.9999999999999998E-013
       EPSRHO0  1.0000000000000000E-008
       QUADRATURE GC_LOG
       EXTRAPOLATION ASPC
       METHOD GAPW
     &END QS
     &MGRID
       NGRIDS 4
       CUTOFF  6.0000000000000000E+002
       REL_CUTOFF  6.0000000000000000E+001
     &END MGRID
     &XC
       DENSITY_CUTOFF  1.0000000000000000E-010
       GRADIENT_CUTOFF  1.0000000000000000E-010
       TAU_CUTOFF  1.0000000000000000E-010
       &XC_FUNCTIONAL NO_SHORTCUT
         &PBE T
           PARAMETRIZATION REVPBE
         &END PBE
       &END XC_FUNCTIONAL
       &VDW_POTENTIAL
         POTENTIAL_TYPE PAIR_POTENTIAL
         &PAIR_POTENTIAL
           R_CUTOFF  1.2000000000000000E+001
           TYPE DFTD3
           PARAMETER_FILE_NAME /ccc/work/cont003/gen2309/sicilana/DATA_CP2K/dftd3.dat
           REFERENCE_FUNCTIONAL "PBE"
           CALCULATE_C9_TERM T
           REFERENCE_C9_TERM T
           VERBOSE_OUTPUT T
           D3_EXCLUDE_KIND 3
         &END PAIR_POTENTIAL
       &END VDW_POTENTIAL
     &END XC
     &REAL_TIME_PROPAGATION
       INITIAL_WFN RT_RESTART
     &END REAL_TIME_PROPAGATION
     &PRINT
       &MO_CUBES SILENT
         WRITE_CUBE F
         NLUMO 10
         NHOMO 2
         &EACH
           MD 200
         &END EACH
       &END MO_CUBES
       &MOMENTS ON
         ADD_LAST NUMERIC
         COMMON_ITERATION_LEVELS 20000
         FILENAME =brines-1.dipoles
         REFERENCE COM
         &EACH
           MD 1
         &END EACH
       &END MOMENTS
     &END PRINT
   &END DFT
   &SUBSYS
     &CELL
       A  1.8894033615604723E+001  0.0000000000000000E+000  0.0000000000000000E+000
       B  0.0000000000000000E+000  1.8894033615604723E+001  0.0000000000000000E+000
       C  0.0000000000000000E+000  0.0000000000000000E+000  1.8894033615604723E+001
       MULTIPLE_UNIT_CELL 1 1 1
     &END CELL
     &COORD
       H  1.0207157277810914E+001  2.2379876089192130E+001  1.1313131210823979E+000
       H  9.4546897392775069E+000  2.3542357829135167E+001  1.3112861757491279E+000
       O  9.7728247578681522E+000  2.2830154475489614E+001  1.8397259033070303E+000
       H  8.1038456530461840E+000 -8.6381431020426653E+000  2.0905060216341109E+000
       H  8.5010523417417065E+000 -7.9508360751584117E+000  3.4983738936023911E+000
       O  7.7406351426914606E+000 -8.3081881216980946E+000  2.9260526488857823E+000
       H -9.7101020145426986E+000  4.7093545035509429E+001  4.7876658374017531E+001
       H -9.8000571787770649E+000  4.7646984048209653E+001  4.6496417839641097E+001
       O -9.9036673904536858E+000  4.6776115332039780E+001  4.6957859734715058E+001
       H  9.3689784796565778E+000  2.2674673413951968E+001  2.3841346107272333E+001
       H  8.7851904745609755E+000  2.3676319023934752E+001  2.2774922075142729E+001
       O  8.6596412761433559E+000  2.3262180192160905E+001  2.3648605162128582E+001
       H -9.9943529823031518E+000  5.5562313574753865E+000  9.6943791236967787E+000
       H -9.4600637150391709E+000  6.9579793948904785E+000  1.0148765614887443E+001
       O -9.7142936348830062E+000  6.0835836645562278E+000  1.0455890131315622E+001
       H  3.2976631354553746E+001  2.8042283835702190E+001 -5.8817278458346900E+000
       H  3.2260972821816459E+001  2.8756931495199481E+001 -6.9639245562141898E+000
       O  3.3059931254455151E+001  2.8860308963213704E+001 -6.4858444583469055E+000
       H -5.3181722151330248E+000  5.6704248825992947E+000  8.5556199918390394E+000
       H -5.3807646045682933E+000  5.3948979774352974E+000  1.0080069656622156E+001
       O -5.4013460100994264E+000  4.9105934076696016E+000  9.1896012220166785E+000
       H  2.5016264377891630E+001 -1.0270049287709921E+000 -1.7623905238315920E+000
       H  2.4649170853400602E+001  3.9694813010890184E-001 -1.3204133642883931E+000
       O  2.4590605708415556E+001 -5.6803905872292981E-001 -1.0705338009005503E+000
       H  2.1675258012487692E+001  1.3015479953707951E+001  1.4463883119646431E+001
       H  2.1733234328690099E+001  1.3976622163414699E+001  1.3355915978138553E+001
       O  2.1529784365444886E+001  1.3937354348748119E+001  1.4333603222966770E+001
       H  2.4469634422339581E+001 -1.2887553780759264E+000  2.2036579883079973E+001
       H  2.3348476743145319E+001 -1.6181997698868931E+000  2.2954230871143995E+001
       O  2.4006008532563222E+001 -8.8184178094009757E-001  2.2901765298785875E+001
       H  5.7480260101107383E+000 -8.4234245886550804E-002 -1.0167194340511632E+001
       H  4.9177271780569125E+000  6.8082043446599105E-001 -9.1041055513554046E+000
       O  4.9366367419704886E+000  4.4009598744118034E-001 -1.0122764573330043E+001
       H  1.2263252284464864E+001  3.0816042303662643E+000  2.2592050413459429E+001
       H  1.1160144686425486E+001  3.8911641027036219E+000  2.2126002377405491E+001
       O  1.1887870882682421E+001  3.9010776264050842E+000  2.2806844315428723E+001
       H  1.6904660719969726E+001  1.3116210206726308E+001  3.5000856923126626E+000
       H  1.7819133579998514E+001  1.4366067987024552E+001  3.7954196206769928E+000
       O  1.6943998398928144E+001  1.4059089875767231E+001  3.8886805066951915E+000
       H  5.7707720400989393E+000 -9.8478058809702151E+000 -1.9029726285805322E+000
       H  6.5171411071305814E+000 -1.1071189989677469E+001 -1.6036950165244621E+000
       O  6.6276893146886255E+000 -1.0153531710998598E+001 -1.4553138063788329E+000
       H  2.9833625742323285E+001  3.6009781574616312E+001  5.9870789299249461E-001
       H  3.0994701058268088E+001  3.5552068765545542E+001 -4.7509935222433175E-001
       O  2.9994362229259064E+001  3.5688540439100592E+001 -3.1624846603245216E-001
       H  1.4580584985956602E+001  1.9998096349009118E+000 -1.0795806424300990E+001
       H  1.3734052214886750E+001  3.0267523171551756E+000 -1.0117600294069504E+001
       O  1.3904788938034857E+001  2.0977508857199973E+000 -1.0155264038713108E+001
       H  2.0120395504296653E+001  1.8718358655804998E-001  6.0452914459301930E+000
       H  2.0409692121388701E+001  1.0144781092052564E+000  7.3061508063606633E+000
       O  2.0122050194071438E+001  1.1242489768840147E+000  6.3854229740338608E+000
       H  9.4717246787365887E+000 -1.7932389334429855E+000  1.7482947918705520E+001
       H  8.4812494600273656E+000 -5.2610282622833737E-001  1.7591516810149454E+001
       O  8.6000559134237164E+000 -1.4036746988244386E+000  1.7109044523053392E+001
       H  4.6233183215199443E+000  1.7940179461858712E+001  6.8226908077943733E+000
       H  5.0149303519764672E+000  1.6626960102948185E+001  6.4900645823408691E+000
       O  4.2333896600674281E+000  1.7092096123957365E+001  6.8655502965767239E+000
       H  2.0997124496902110E+001  2.5584112947201515E+001  2.1272736774550571E+000
       H  1.9974999608189698E+001  2.6029319483679359E+001  3.2606839469342948E+000
       O  2.0150410842290434E+001  2.5452575219562704E+001  2.5266475263818649E+000
       H  1.7133184404393560E+001  1.0889458633225775E+001  2.0121519455673813E+001
       H  1.6579623828970959E+001  1.2298917536890388E+001  1.9975925530095854E+001
       O  1.6864712895720455E+001  1.1685134305633895E+001  2.0635036413847597E+001
       H  1.0559460183079832E+001 -1.1556710935186130E+001  1.7836551609395855E+001
       H  9.1340970743834511E+000 -1.1901421102992980E+001  1.7441794657483218E+001
       O  1.0001939081371360E+001 -1.1705806448925260E+001  1.7099042271832374E+001
       H  2.7576812680888288E+001  1.3754260813820592E+001  2.2925937719131458E+001
       H  2.8698022058434617E+001  1.4509099387649593E+001  2.3483777882471589E+001
       O  2.7703982906975220E+001  1.4534317956215201E+001  2.3357835052870584E+001
       H -1.7978488689707969E+001  8.1512124844194780E+000  1.5161892782423850E+001
       H -1.6676256451451803E+001  7.2833362322633821E+000  1.5072392645350366E+001
       O -1.7133836608749526E+001  8.0520999963924620E+000  1.4681252673247490E+001
       H  1.8822076338262064E+000  5.9813584549825070E+000  6.3916757986369017E+000
       H  6.8053420246645635E-001  6.3054117025728198E+000  7.2437242671786644E+000
       O  9.0110622656987338E-001  5.8076778965515956E+000  6.4463305746645760E+000
       H -7.1022133714768474E+000 -1.5036042421607528E+001  1.7520329678652391E+001
       H -7.4232947602865469E+000 -1.6201570562260926E+001  1.8508780242561297E+001
       O -7.7598936014668061E+000 -1.5315397969479083E+001  1.8188214874758486E+001
       H  2.6931826390844336E+001  9.8649589405676306E+000 -7.1217234241199134E-001
       H  2.8129234937218648E+001  1.0847736997036952E+001 -2.9690857130457465E-001
       O  2.7749504139429327E+001  9.9030300126293351E+000 -6.7454948037803206E-002
       H  1.1783942175420655E+001 -2.0517168007976476E+000  2.5459674538210574E+001
       H  1.2742214465181073E+001 -2.8094470137055954E+000  2.4641638862460752E+001
       O  1.2302079297899651E+001 -2.8829406667205162E+000  2.5491545229767553E+001
       H -6.6248287617471586E+000  8.1211124555925380E+000 -3.1185436214116584E+000
       H -5.3945269096473831E+000  8.8793574883761845E+000 -2.8496550705371524E+000
       O -5.8336151221583501E+000  8.0319596365776498E+000 -2.6054641925040043E+000
       H  7.1926688909231027E+000  4.4646286226369334E+000  1.0321614949195910E+000
       H  7.3102783191704512E+000  5.9488402056313019E+000  5.5534827183714841E-001
       O  7.7119586486286744E+000  5.1072063079437804E+000  4.5087640117362449E-001
       H  1.3834173267817640E+000 -6.7905337322086612E-001  1.7465017221613539E+000
       H  1.9749974304741333E-001 -4.0658712752443177E-001  2.6927162692103144E+000
       O  8.5341641099212728E-001 -1.0033865940950788E+000  2.4217526352453431E+000
       H -3.1277356094231061E+000  2.1741660322546906E+001 -5.5664579427162098E+000
       H -2.4122399634895615E+000  2.1829299842523447E+001 -4.1998289392714394E+000
       O -3.1260831712815018E+000  2.2334693160320764E+001 -4.7585711194557510E+000
       H  2.3695388246540649E+001  2.4606243920461282E+001  1.2221562543077399E+001
       H  2.3284685811673633E+001  2.5775677211044780E+001  1.1496180933340680E+001
       O  2.3028289900037095E+001  2.4874103199119261E+001  1.1676678961244280E+001
       H  2.5689028602025807E+000 -2.0282382668232852E+001 -5.8884279540218012E+000
       H  2.2035410414745282E+000 -1.9092345602424334E+001 -6.8077321341864607E+000
       O  2.8809233915100547E+000 -1.9736382282924030E+001 -6.7038130871075907E+000
       H  8.1783184979090340E+000  2.2932383815477992E+000  1.2202243211295396E+001
       H  8.7544517398370996E+000  3.6725140045966369E+000  1.1660932913317930E+001
       O  8.1050353680606779E+000  2.9400732346396112E+000  1.1439798315406604E+001
       H  1.3548096566896469E+001  2.0315923051835817E+001 -1.8650350041255674E+001
       H  1.2283147983426449E+001  1.9726026829770870E+001 -1.7836189934212250E+001
       O  1.2702702893126109E+001  2.0556350845344834E+001 -1.8214382823692308E+001
       H  1.3057024428405544E+001 -9.0315534421521253E+000 -1.7809171664483284E+001
       H  1.4337688717791933E+001 -8.4594413198024654E+000 -1.8000711381336341E+001
       O  1.3381270934588622E+001 -8.1557153256724355E+000 -1.8051550063123596E+001
       H  1.3671204655125100E+001 -2.9710804347238930E+000  2.9072891258163235E+001
       H  1.3563225065519065E+001 -2.7636307412895271E+000  2.7607293266509966E+001
       O  1.4202596832765806E+001 -2.9315646469198771E+000  2.8324857138636919E+001
       H  2.2253606977163670E+001  6.4066024542202538E+000  1.6898154526572053E+001
       H  2.1775119508048959E+001  5.7400525369313886E+000  1.8183168483589501E+001
       O  2.1444461345703715E+001  6.1170412241998511E+000  1.7362428914295716E+001
       H  1.6369957522218758E+001  2.1565557709847059E+001  1.1116295241753463E+001
       H  1.5298664766417684E+001  2.0945894474673167E+001  1.0140744987493857E+001
       O  1.5614949101113821E+001  2.0981080835820720E+001  1.1088822910424192E+001
       H  3.1945322365817574E+000  1.4527919453586153E+000  4.1821523030258057E+000
       H  2.4188853609132299E+000  2.2848992816922160E+000  3.0428020696458353E+000
       O  3.2751440631873741E+000  1.9997859935892688E+000  3.3527776959630096E+000
       H  1.9057083414635610E+001  2.3794211867281646E+001 -6.9795917054663166E+000
       H  1.8564431308137102E+001  2.3300583876683067E+001 -5.6094554776517365E+000
       O  1.8763248040058471E+001  2.2976400908165683E+001 -6.5503290349497814E+000
       H  2.7234367931199310E+000  3.5032901512802155E+001  1.5550239265982130E+001
       H  4.0603399544116678E+000  3.4570232071537063E+001  1.6138839937283631E+001
       O  3.2506867818245442E+000  3.5214178598896595E+001  1.6276078405863444E+001
       H  1.2627593949794287E+001  1.6672101972111291E+000  1.2871926444008430E+001
       H  1.2590991274984919E+001  1.7304541227259795E+000  1.1351024083874526E+001
       O  1.2040340193211641E+001  1.6290536860567952E+000  1.2099716803328365E+001
       H  1.4064637745395380E+001  1.5702061706346097E+001 -1.6948538759260764E+001
       H  1.2631213117155937E+001  1.5350819584157872E+001 -1.6507744860279438E+001
       O  1.3135772574815459E+001  1.6053050780524419E+001 -1.6854375558565220E+001
       H -1.0394966243413222E+001  1.4648880572608418E+001  7.1349457423498608E+000
       H -8.8635431850758462E+000  1.5018139974312302E+001  7.7360025419209411E+000
       O -9.7122487493121987E+000  1.4511290787656860E+001  7.7584814419775396E+000
       H  9.6117978991155137E+000  3.6178417295503351E+001  1.3621324185660098E+001
       H  9.3487763173799454E+000  3.6211725842176890E+001  1.5188239266056581E+001
       O  9.6441207261621109E+000  3.5684904728789078E+001  1.4460523483671871E+001
       H  5.7774817615392964E+000  4.8031174069857832E+000  1.7887661340875489E+001
       H  5.6452973546721523E+000  5.0741488307733569E+000  1.6488621885048040E+001
       O  5.6777047898067394E+000  5.5676175760886641E+000  1.7311239463023234E+001
       H -1.6133531706794031E+000  2.0280499813037043E+001 -1.5969320028583216E+000
       H -9.5002949178642826E-001  1.9046474282720514E+001 -1.8546936790668840E+000
       O -9.7361559163633360E-001  1.9647006746388204E+001 -1.1078843786335288E+000
       H -5.9950911715760213E+000  1.8275718264876240E+001  2.1998479383144542E+001
       H -6.7611025144730306E+000  1.8891832915527278E+001  2.3224320645589472E+001
       O -6.0507206239633717E+000  1.8255342395586158E+001  2.2937143320484427E+001
       H  1.8766594711260414E+001 -4.2105750227327512E+000  6.7014978902483691E+000
       H  1.8554974866877178E+001 -2.6353093196156867E+000  7.0525634215713868E+000
       O  1.8688538097903727E+001 -3.2746797977757400E+000  6.3037703675670853E+000
       H -3.2217250109789930E+001  4.4475078448570926E+000  2.2227358501564609E+001
       H -3.3182670933834579E+001  3.5487334058496725E+000  2.1500796207877716E+001
       O -3.2489911627586139E+001  4.1518124950976736E+000  2.1349040149969621E+001
       H  1.0483529240908799E+001  9.9752986564687145E+000  1.1783738643722570E+001
       H  9.2269541441703105E+000  9.8777467983393592E+000  1.2602926100387826E+001
       O  9.5573115136768010E+000  1.0255902240384621E+001  1.1723486413105046E+001
       H  1.7435794253626529E+001 -1.6838862796468245E+001  2.2429131236712188E+001
       H  1.7023548677174752E+001 -1.6000745825789995E+001  2.3621581898912837E+001
       O  1.7740705842315986E+001 -1.6177253299341700E+001  2.3070102352604174E+001
       H -4.4465059017059233E-001  1.4969255105182885E+001 -4.9352684736864045E+000
       H  1.7718470205252151E-001  1.6375692392104622E+001 -4.6745908454148370E+000
       O -2.4735689136351455E-001  1.5804605163391198E+001 -5.3659731653130773E+000
       H  1.8604505888765392E+001  9.2385870936411383E+000  1.6418653617218283E+001
       H  1.9633962568290098E+001  1.0200763000610785E+001  1.6055954599502485E+001
       O  1.8860249193916317E+001  9.7530569215704084E+000  1.5695074353529359E+001
       H  2.3500004994459691E+000  9.6279036074961084E+000  2.5518269306311478E+001
       H  3.6186587031353037E+000  9.1778540346079627E+000  2.6197878885495577E+001
       O  2.8331863411136453E+000  8.8791342777418301E+000  2.5625631812412905E+001
       H  3.7625172537715654E+000 -7.5711236003991074E+000 -1.4118292555335277E+000
       H  2.7299592235789918E+000 -6.2937973654461965E+000 -1.3687893885985309E+000
       O  3.2111197050786058E+000 -6.9402899674174607E+000 -1.8655760229272265E+000
       H  2.6925041975342108E+000  8.6551015977751522E+000  1.6761278906324435E+001
       H  2.8649564649904513E+000  8.0320173577808323E+000  1.7990747557216633E+001
       O  3.3955063872988211E+000  8.6434109418323395E+000  1.7379882514400901E+001
       H  6.8501294399269357E+000  2.4380588906751797E+001  3.2770947225371344E+001
       H  6.7440267102483773E+000  2.2858133760190643E+001  3.2809947229167484E+001
       O  6.5028251769583969E+000  2.3689125702180284E+001  3.3370755129825831E+001
       H  8.5643893419353798E+000  3.2690831237941502E+001 -2.7430044518095298E+000
       H  9.0209264821121451E+000  3.3346158754448368E+001 -1.4657178232599446E+000
       O  9.1151210060673833E+000  3.2499791889853185E+001 -1.9354685198831696E+000
       H -2.7346018360880237E-001  9.9235731234898932E+000  1.1462159970180492E+001
       H  3.5004730401301482E-001  1.1251623096573582E+001  1.2087426708657624E+001
       O -9.7182136786720566E-002  1.0887272967765208E+001  1.1241519443230745E+001
       H  1.4930427119843021E+001  1.3370226433555604E+001 -1.9389740527279653E+001
       H  1.6204924278538439E+001  1.2935373953203751E+001 -2.0325649881523880E+001
       O  1.5785343818470526E+001  1.2977873579011952E+001 -1.9365515161536496E+001
       H  1.3800281853477783E+001 -1.2110792908398276E+000  1.6005892122097478E+001
       H  1.2471170406316309E+001 -1.7151446951322213E+000  1.5516298131707133E+001
       O  1.3084252869203755E+001 -1.7119942796916039E+000  1.6310383514194243E+001
       H  1.6004484500448523E+001  7.2863850801545658E+000  2.0603495187666514E+001
       H  1.4654893727839051E+001  7.5755005198765968E+000  2.1415821585224172E+001
       O  1.5157454657758878E+001  7.8714853945052816E+000  2.0559488701125137E+001
       H  2.9256696346442112E+001 -1.4722943196985576E+000  2.2322474843499585E+001
       H  2.7863970598706430E+001 -1.3337636488720457E+000  2.2143850457367744E+001
       O  2.8684390024207993E+001 -1.3338686578860450E+000  2.1539904473830575E+001
       H  2.0852333929335479E+001  1.5007968693892890E+001  1.8079265218162593E+001
       H  1.9705282332921641E+001  1.4096029599201005E+001  1.8340569411460205E+001
       O  2.0660112796317396E+001  1.4097380978897219E+001  1.8359139775541223E+001
       H  1.1086115078766891E+001  5.9896812450250465E+000 -5.6505821946966464E+000
       H  9.6841129958696186E+000  5.9829232428525057E+000 -4.8010151629901969E+000
       O  1.0326772681792999E+001  5.4165099497765858E+000 -5.3104881142459046E+000
       H -2.2817486535808049E+000  1.1929617844239827E+001 -4.4055587743805926E+000
       H -2.6626510927041127E+000  1.3020145701634180E+001 -5.4910987514539489E+000
       O -2.0761853906053123E+000  1.2183838330400583E+001 -5.3252977797067409E+000
       H  7.2559223564910837E+000  7.0958496065600176E+000  1.2019383364984433E+001
       H  8.6674568597470483E+000  6.6716775453196435E+000  1.2097228986741820E+001
       O  7.9347047563052708E+000  6.8706041920079635E+000  1.2701967962684916E+001
       H -1.6786088690162849E+001 -3.2952905061220532E+000  5.0984000558017994E+000
       H -1.6983816857126982E+001 -3.9607522007529110E+000  3.8802903183719208E+000
       O -1.6248621459619304E+001 -3.8295990901815382E+000  4.4693542001676594E+000
       H -8.0251184091235528E-001  7.3950569749588526E+000 -6.8604174188161995E+000
       H -1.0320175343057867E+000  7.5451635271778441E+000 -8.4062535824914288E+000
       O -4.2870039518524872E-001  7.7959677416588038E+000 -7.6755033326676028E+000
       H  1.3383223695822897E+001  8.7706053615168269E+000  7.2563492969741912E+000
       H  1.3532002660517284E+001  9.9388124268779237E+000  8.2248966598948456E+000
       O  1.4018377797444904E+001  9.4836140458377987E+000  7.5550188235604558E+000
       H  3.2461166347933523E+000  1.0977425771100819E+001  2.4812677549575417E+000
       H  1.7570525501904637E+000  1.0822106527395558E+001  3.0321718680796024E+000
       O  2.3820054833367612E+000  1.0504475569092017E+001  2.4431066949928555E+000
       H  1.1794742352200270E+001  1.5822139988289701E+001 -7.0833677556458117E+000
       H  1.2479102282665258E+001  1.4537935662935553E+001 -7.2281903789526778E+000
       O  1.2433069403967217E+001  1.5237534563767591E+001 -6.5929603157713448E+000
       H  1.5358376052000121E+001  1.9344749790116506E+001  1.2928134521174428E+001
       H  1.5469647265976581E+001  1.7916463102700042E+001  1.3660626691379122E+001
       O  1.4960234881448139E+001  1.8813656845877450E+001  1.3619956540852300E+001
       H  5.9096056155145451E+000 -4.8583426261850757E+000 -1.2310997379051841E+001
       H  6.5197192174860099E+000 -4.2878185015405155E+000 -1.0987168159737232E+001
       O  6.4689266491256499E+000 -4.1773404829937091E+000 -1.1942481714859282E+001
       H  4.3569201545540892E+000  1.1725010673215046E+001  6.0321268359146272E+000
       H  5.6413541414944390E+000  1.0877104676100949E+001  5.7211978549884197E+000
       O  5.3359332069823617E+000  1.1789990320956793E+001  5.7898788310245592E+000
       H  1.1537333489788072E+001  7.1144796186092725E+000  1.0175722126383739E+001
       H  1.0960866140532760E+001  8.3391926202016986E+000  9.5189496497883130E+000
       O  1.1786188332329047E+001  8.0108754013227017E+000  9.9976246378680109E+000
       H  9.4684060947291049E-001  1.5321410244137206E+000 -7.8554921600287431E+000
       H  1.0226486012750182E+000  2.1707990372602035E+000 -6.4000671520804300E+000
       O  1.0751748465438629E+000  1.3610146872123110E+000 -6.9109718674019609E+000
       H  2.0148869849097513E+000  1.3603423342936534E+001  6.6708181604696311E+000
       H  2.5756266563671590E+000  1.3169824545250570E+001  8.0532232060985329E+000
       O  1.9449344309777639E+000  1.3856902717051794E+001  7.6074779127421399E+000
       H -7.4683818201677186E+000 -5.8420347140178128E+000  1.6815863826718463E+001
       H -7.1912502878613411E+000 -6.7723117269180912E+000  1.7931374773021741E+001
       O -6.7136487654262851E+000 -6.1836172536897251E+000  1.7289769843016117E+001
       H  1.8697483339767455E+001  2.5272081482953261E+000  1.5500747716411757E+001
       H  1.8278268865500870E+001  1.0720754786351498E+000  1.5300152436579822E+001
       O  1.8187381020455675E+001  1.9747347644198965E+000  1.4894722810763639E+001
       H  1.5402133800937726E+001 -4.3394445484381601E+000  2.8683982998886176E+001
       H  1.6827654041082450E+001 -4.9624734769094090E+000  2.8655960854206477E+001
       O  1.6342837396128910E+001 -4.1960129766520478E+000  2.9002290006292373E+001
       H  1.8766126159504942E+001  1.1916064755273328E+000  1.9280862176738932E+001
       H  1.9340247263970202E+001  2.4738168852210545E+000  2.0153333342524167E+001
       O  1.9201175600697240E+001  1.5013597044735061E+000  2.0160840399934813E+001
       H  9.5858974183442065E+000  3.0059852546925852E+000 -4.9856513333219352E+000
       H  1.0553673423626677E+001  2.1196456295194430E+000 -5.4858250552581964E+000
       O  9.7047025577830333E+000  2.1124785214771746E+000 -5.0373724931190127E+000
       H  1.1324482760921766E+001 -6.3178680172164912E+000 -5.3027986367872266E+000
       H  1.0462841051862435E+001 -5.5702759127035586E+000 -4.1655184496156243E+000
       O  1.0550522861127890E+001 -6.3936531823369727E+000 -4.7330306845554881E+000
       H  3.3190125805003298E+001  1.5034946961167394E+001  1.3122434465058882E+001
       H  3.4612748478074863E+001  1.5635454192481328E+001  1.3269320502334404E+001
       O  3.4072937021872242E+001  1.4847429339430029E+001  1.3394262897671235E+001
       H  1.9428684532733730E+001  8.9695441497399813E+000  8.9758961683997782E+000
       H  1.9332309263319313E+001  8.5066672019363860E+000  7.4867128293185239E+000
       O  1.8811125598969998E+001  8.8889451868351177E+000  8.1899994253088906E+000
       H  8.1808512571988583E+000 -7.0499769665557999E+000  7.7001841882233855E+000
       H  9.4840755856443533E+000 -6.2819867425931939E+000  8.3084844717086970E+000
       O  8.9847495923360761E+000 -7.1555477166653789E+000  8.2422078999413984E+000
       H -5.5899829819373767E+000  5.8986737477505757E+000  4.0395478526476811E+000
       H -5.4098201393993213E+000  6.8019566227168173E+000  5.2928694301060739E+000
       O -5.1266207444807721E+000  6.7059269647716935E+000  4.3553494276936044E+000
       H  1.4220237414487499E+001 -1.3756646793573250E+001 -2.2491530828863002E+000
       H  1.2919500018964236E+001 -1.3027815072448409E+001 -2.5072511319341557E+000