 # Version information for this restart file 
 # current date 2025-04-01 00:27:39.280
 # current working dir /ccc/scratch/cont003/gen2309/sicilana/NPT/128_H2O_4_NaCl_10_wt_673K_1000bar/BATCH_11_MD_T_673_P_1000_steps_1000_dt_0.5_NH2O_128_NaCl_4_abc_17.19_17.19_17.19_wt_9.20
 # Program compiled at                                       2024-10-31 15:04:21
 # Program compiled on                                                 topaze131
 # Program compiled for                                                   x86_64
 # Source code revision number                                                  
 &GLOBAL
   PRINT_LEVEL LOW
   PROJECT_NAME "brines"
   RUN_TYPE MD
   FLUSH_SHOULD_FLUSH T
 &END GLOBAL
 &MOTION
   &MD
     ENSEMBLE NPT_I
     STEPS 1000
     TIMESTEP  4.9999999999999994E-001
     STEP_START_VAL 26999
     TIME_START_VAL  1.3499500000006114E+004
     ECONS_START_VAL -2.4590398713531335E+003
     TEMPERATURE  6.7300000000000011E+002
     &BAROSTAT
       PRESSURE  1.0000000000000000E+003
       TIMECON  9.9999999999999989E+002
       &VELOCITY
          -8.9690906187523972E-006
       &END VELOCITY
       &MASS
           4.2836593343398705E+007
       &END MASS
       &THERMOSTAT
         TYPE CSVR
         &CSVR
           TIMECON  9.6755373060191388E+001
           &THERMOSTAT_ENERGY
               2.0038599253970313E-003
           &END THERMOSTAT_ENERGY
           &RNG_INIT
 Wiener process for Thermostat # 1        1 F T F   7.0842796538932706E-01        4244280991.0         847639084.0        2550671057.0         827304793.0        2834273464.0        2484346980.0             12345.0             12345.0             12345.0             12345.0             12345.0             12345.0             12345.0             12345.0             12345.0             12345.0             12345.0             12345.0
           &END RNG_INIT
         &END CSVR
       &END THERMOSTAT
     &END BAROSTAT
     &THERMOSTAT
       TYPE CSVR
       &CSVR
         TIMECON  9.9999999999999989E+002
         &THERMOSTAT_ENERGY
            -8.1591623365732824E-001
         &END THERMOSTAT_ENERGY
         &RNG_INIT
 Wiener process for Thermostat # 1        1 F T F   2.1388924677945889E-01         277368332.0        4169948280.0         871983864.0        2645964860.0         695664272.0        4047102755.0             12345.0             12345.0             12345.0             12345.0             12345.0             12345.0             12345.0             12345.0             12345.0             12345.0             12345.0             12345.0
         &END RNG_INIT
       &END CSVR
     &END THERMOSTAT
     &AVERAGES T
       &RESTART_AVERAGES
         ITIMES_START 1
         AVECPU  2.3351126963741560E+001
         AVEHUGONIOT  0.0000000000000000E+000
         AVETEMP_BARO  3.1110912703106129E+002
         AVEPOT -2.4597252948334603E+003
         AVEKIN  1.2210147145913617E+000
         AVETEMP  6.5740066766308905E+002
         AVEKIN_QM  0.0000000000000000E+000
         AVETEMP_QM  0.0000000000000000E+000
         AVEVOL  3.8761579938437964E+004
         AVECELL_A  3.3766330923008120E+001
         AVECELL_B  3.3766330923008120E+001
         AVECELL_C  3.3766330923008120E+001
         AVEALPHA  9.0000000000000000E+001
         AVEBETA  9.0000000000000000E+001
         AVEGAMMA  9.0000000000000000E+001
         AVE_ECONS -1.3703876988943423E+002
         AVE_PRESS  4.0376277310927361E+002
         AVE_PXX  3.8115573287140666E+002
       &END RESTART_AVERAGES
     &END AVERAGES
   &END MD
   &PRINT
     &TRAJECTORY SILENT
       FILENAME =brines-1.xyz
       &EACH
         MD 1
       &END EACH
     &END TRAJECTORY
     &CELL SILENT
       FILENAME =brines-1.cell_xyz
       &EACH
         MD 1
       &END EACH
     &END CELL
     &VELOCITIES SILENT
       FILENAME =brines-1.vel
       &EACH
         MD 1
       &END EACH
     &END VELOCITIES
     &FORCES SILENT
       FILENAME =brines-1.force
       &EACH
         MD 1
       &END EACH
     &END FORCES
     &STRESS SILENT
       FILENAME =brines-1.stress
       &EACH
         MD 1
       &END EACH
     &END STRESS
     &RESTART SILENT
       FILENAME =brines-1.restart
       &EACH
         MD 1
       &END EACH
     &END RESTART
     &RESTART_HISTORY SILENT
       &EACH
         MD 50
       &END EACH
     &END RESTART_HISTORY
   &END PRINT
 &END MOTION
 &FORCE_EVAL
   METHOD QS
   STRESS_TENSOR ANALYTICAL
   &DFT
     BASIS_SET_FILE_NAME /ccc/work/cont003/gen2309/sicilana/DATA_CP2K/GTH_BASIS_SETS
     POTENTIAL_FILE_NAME /ccc/work/cont003/gen2309/sicilana/DATA_CP2K/GTH_POTENTIALS
     &SCF
       MAX_SCF 50
       EPS_SCF  9.9999999999999995E-008
       &OT T
         MINIMIZER DIIS
         PRECONDITIONER FULL_SINGLE_INVERSE
       &END OT
       &OUTER_SCF T
         EPS_SCF  9.9999999999999995E-008
         MAX_SCF 50
       &END OUTER_SCF
     &END SCF
     &QS
       EPS_DEFAULT  1.0000000000000000E-014
       EPSFIT  9.9999999999999995E-007
       EPSISO  9.9999999999999998E-013
       EPSRHO0  1.0000000000000000E-008
       QUADRATURE GC_LOG
       EXTRAPOLATION ASPC
       METHOD GAPW
     &END QS
     &MGRID
       NGRIDS 4
       CUTOFF  6.0000000000000000E+002
       REL_CUTOFF  6.0000000000000000E+001
     &END MGRID
     &XC
       DENSITY_CUTOFF  1.0000000000000000E-010
       GRADIENT_CUTOFF  1.0000000000000000E-010
       TAU_CUTOFF  1.0000000000000000E-010
       &XC_FUNCTIONAL NO_SHORTCUT
         &PBE T
           PARAMETRIZATION REVPBE
         &END PBE
       &END XC_FUNCTIONAL
       &VDW_POTENTIAL
         POTENTIAL_TYPE PAIR_POTENTIAL
         &PAIR_POTENTIAL
           R_CUTOFF  1.2000000000000000E+001
           TYPE DFTD3
           PARAMETER_FILE_NAME /ccc/work/cont003/gen2309/sicilana/DATA_CP2K/dftd3.dat
           REFERENCE_FUNCTIONAL "PBE"
           CALCULATE_C9_TERM T
           REFERENCE_C9_TERM T
           VERBOSE_OUTPUT T
           D3_EXCLUDE_KIND 3
         &END PAIR_POTENTIAL
       &END VDW_POTENTIAL
     &END XC
     &REAL_TIME_PROPAGATION
       INITIAL_WFN RT_RESTART
     &END REAL_TIME_PROPAGATION
     &PRINT
       &MO_CUBES SILENT
         WRITE_CUBE F
         NLUMO 10
         NHOMO 2
         &EACH
           MD 200
         &END EACH
       &END MO_CUBES
       &MOMENTS ON
         ADD_LAST NUMERIC
         COMMON_ITERATION_LEVELS 20000
         FILENAME =brines-1.dipoles
         REFERENCE COM
         &EACH
           MD 1
         &END EACH
       &END MOMENTS
     &END PRINT
   &END DFT
   &SUBSYS
     &CELL
       A  1.8647040422034017E+001  0.0000000000000000E+000  0.0000000000000000E+000
       B  0.0000000000000000E+000  1.8647040422034017E+001  0.0000000000000000E+000
       C  0.0000000000000000E+000  0.0000000000000000E+000  1.8647040422034017E+001
       MULTIPLE_UNIT_CELL 1 1 1
     &END CELL
     &COORD
       H  1.2937151036846601E+001  2.1592401144416232E+001  4.7145877201017790E+000
       H  1.2500716833720134E+001  2.0815078572273475E+001  3.4986038926773610E+000
       O  1.2925320081318732E+001  2.1625908129157292E+001  3.7675012334916498E+000
       H  7.0589881921777984E+000 -8.6820501404531907E+000  1.9564704768135321E+000
       H  6.5592369365660401E+000 -8.3565944611023308E+000  3.3825459843160126E+000
       O  6.2020511970272256E+000 -8.5549619321675650E+000  2.4365863821660394E+000
       H -1.0018173094541165E+001  4.6610397356972911E+001  4.7283148247381732E+001
       H -9.0293137167893835E+000  4.5766965911574147E+001  4.6478648482131611E+001
       O -9.1207654541946397E+000  4.6210443534723147E+001  4.7334558430238964E+001
       H  8.8242369804885232E+000  2.3800914094032226E+001  2.3042564223224105E+001
       H  7.8936153864512395E+000  2.3080625723490080E+001  2.3903612752910213E+001
       O  8.7230569003648970E+000  2.3668832257617336E+001  2.4006941602648947E+001
       H -1.6026858616738512E+001  5.6090602931724423E+000  1.1751036756740792E+001
       H -1.4554675429846313E+001  5.9717641640148997E+000  1.1730149230855531E+001
       O -1.5194758784230837E+001  5.5406941089141988E+000  1.1180937354569030E+001
       H  3.4448090853470433E+001  2.6477079673218554E+001 -6.6000456007969737E+000
       H  3.3048441242838891E+001  2.7120176066713192E+001 -7.1099598976990022E+000
       O  3.4032061766514374E+001  2.7300346219015150E+001 -7.0548951688934647E+000
       H -6.3237618028314433E+000  3.5077437006244665E+000  9.5206553170518351E+000
       H -5.0196103460896122E+000  2.7144196596604337E+000  9.2683365976266110E+000
       O -5.4988953403009457E+000  3.2763950544992713E+000  9.8716991846389917E+000
       H  2.5527700851907476E+001 -1.8580085029672033E+000 -5.2848644390463431E+000
       H  2.6205760596282722E+001 -3.8662490850550207E-001 -5.7637894733572299E+000
       O  2.5432405309780336E+001 -8.1268493663138064E-001 -5.3128825519176379E+000
       H  1.9868728363910005E+001  1.1916896524719103E+001  1.4440821713292458E+001
       H  2.1113193781039897E+001  1.2086187055427876E+001  1.3719066605986768E+001
       O  2.0349248727465564E+001  1.2664832611415406E+001  1.4077718015859759E+001
       H  2.4190397256154768E+001  4.3632509314704548E-001  2.4955957007078069E+001
       H  2.5036519933816244E+001  2.4700307244726497E-001  2.3733338311322175E+001
       O  2.4928027633214828E+001 -3.9359405853962783E-002  2.4570870995880220E+001
       H  3.0053477508288649E+000  1.9960242391689409E+000 -1.1968113091782300E+001
       H  2.5630583111546437E+000  5.8464414463886150E-001 -1.2383748334759243E+001
       O  3.3150928648475615E+000  1.0329632894361807E+000 -1.2047333923806908E+001
       H  1.2870448064917914E+001  4.7018480768963604E+000  2.6391749787783851E+001
       H  1.2916271189451699E+001  5.2415840999222025E+000  2.4867108867572423E+001
       O  1.2305960408241731E+001  5.0609893868232501E+000  2.5641769727140254E+001
       H  1.8330707810174601E+001  1.3079367626893283E+001  3.9149795190335435E+000
       H  1.7655147433225551E+001  1.4117754778087345E+001  4.6735139822957947E+000
       O  1.7564955389610219E+001  1.3201833571823341E+001  4.4227125182685247E+000
       H  7.9309705331153708E+000 -9.4742396757151237E+000 -2.2646038365621433E+000
       H  6.8335832227190831E+000 -9.1955960326929578E+000 -1.1916475812928271E+000
       O  7.8089589593950661E+000 -9.4301309143608432E+000 -1.2633822251562767E+000
       H  3.0153726027058006E+001  3.6429244803619426E+001 -8.3151682645880254E-001
       H  3.0462909283968578E+001  3.7475640624615124E+001 -1.6152331517473246E+000
       O  3.0108747221986821E+001  3.7398092221654117E+001 -7.6317027496644330E-001
       H  1.5696200977658950E+001  2.3152505156794696E+000 -1.0723944875101628E+001
       H  1.4629625762496589E+001  2.5890722731385534E+000 -1.1811280760057681E+001
       O  1.5144595692686716E+001  1.8274870006407209E+000 -1.1327645177146655E+001
       H  1.8611281660956610E+001  5.5734124128705242E-001  5.6616577731115241E+000
       H  1.9257621685319979E+001 -2.9312681396018354E-002  7.0031531789414823E+000
       O  1.9502581876494418E+001  2.5905865440105924E-001  6.0081143464748088E+000
       H  7.8218759202394601E+000  1.6190148700141643E-001  1.5876770609323126E+001
       H  8.6556066701695489E+000  1.0809317412072241E+000  1.6886242261028194E+001
       O  8.0428118223603988E+000  1.1287219063653924E+000  1.6136697425055427E+001
       H  5.4755850587074759E+000  1.6819990705271998E+001  6.9353916434157341E+000
       H  5.6235451055433412E+000  1.5316832925584281E+001  7.0719890202694629E+000
       O  5.2611209048222864E+000  1.6099372065754331E+001  7.5069512889301580E+000
       H  1.9016782987492611E+001  2.5913473520904141E+001  4.2281346134856013E-001
       H  1.9168431628089120E+001  2.6271943651409252E+001  1.8343964540094087E+000
       O  1.8467843703227299E+001  2.6065491250189122E+001  1.2133348192722917E+000
       H  1.4431747712835579E+001  1.2066084094801479E+001  1.9330429166313049E+001
       H  1.4478382939361801E+001  1.3715209366309026E+001  1.9565828035891123E+001
       O  1.4925952990869575E+001  1.2940865279434085E+001  1.9181975520236232E+001
       H  1.0826667127073232E+001 -1.1483174489869709E+001  1.5208292242526481E+001
       H  9.8479662622653823E+000 -1.0508998352806348E+001  1.5396568023510914E+001
       O  1.0820083224019502E+001 -1.0487590170642539E+001  1.5320259408773975E+001
       H  2.4150561689534644E+001  1.5853516470495482E+001  2.1859856659128475E+001
       H  2.5213060094347529E+001  1.4704056060918418E+001  2.1703829452913219E+001
       O  2.5042914389717104E+001  1.5596025739566885E+001  2.1371635752064790E+001
       H -1.6694021920693910E+001  4.9515510085203651E+000  1.4289580646154816E+001
       H -1.5270912871121572E+001  5.7568408330750200E+000  1.4469223100699931E+001
       O -1.6164292034573236E+001  5.5637956584397710E+000  1.4877645461479881E+001
       H -9.2438868667300078E-001  5.9678076605509496E+000  5.6124132711427324E+000
       H  5.1703375402982887E-001  5.6877767648330471E+000  5.4492936231297460E+000
       O -2.0801338768781802E-001  5.9948274673470854E+000  4.9721731269591345E+000
       H -5.7371071269426492E+000 -1.6717635006208056E+001  1.8370786430780996E+001
       H -4.7258286929583919E+000 -1.5494664229844943E+001  1.7923118502184217E+001
       O -5.6268549262004202E+000 -1.5791128468908974E+001  1.8160092018990674E+001
       H  2.7234802672741310E+001  9.5913838200783434E+000  2.2917454799192968E-001
       H  2.7324108353953765E+001  8.7760919568107116E+000  1.3953599949712743E+000
       O  2.7352570172104972E+001  9.6745708390888741E+000  1.1441008389130729E+000
       H  1.1278602777966178E+001 -8.5054344592462916E-001  2.5774211231813908E+001
       H  9.9445766009543366E+000 -9.8482651824490297E-001  2.6137346227731737E+001
       O  1.0819912460914342E+001 -1.3532348989536851E+000  2.6393923747395796E+001
       H -1.8715477200467168E+000  6.2661111658826254E+000 -4.6985866387281012E+000
       H -2.7035646035673553E+000  7.6220392550155660E+000 -4.1683462615733484E+000
       O -2.7191554245754088E+000  6.8240240690939196E+000 -4.6845822800660564E+000
       H  5.2253743514056472E+000  4.7965623859839130E+000  3.4501916671456541E+000
       H  4.5501730712820416E+000  6.0893446049493782E+000  3.2482038054303670E+000
       O  5.2872716242098639E+000  5.5499912634834123E+000  2.8369077531108347E+000
       H  5.3020507210332590E-001 -2.0095122049059011E+000  3.9890681979533475E+000
       H  2.4490999715412437E-001 -2.6045948424215664E+000  2.6981453015715036E+000
       O -2.9894348483931649E-001 -2.2067325435108618E+000  3.4520576705547379E+000
       H -4.9962887985289234E-001  2.3463744050755661E+001 -5.6896777523706756E+000
       H -9.0705389200772313E-001  2.2684419495390255E+001 -4.4946458128951008E+000
       O -7.8591821285674413E-001  2.3584672943788092E+001 -4.7877514648659378E+000
       H  2.2875463492758627E+001  2.2425269529404140E+001  1.2107361386641617E+001
       H  2.3874091905873115E+001  2.1693131178105354E+001  1.3057379508176217E+001
       O  2.2931391338036882E+001  2.1643932545916872E+001  1.2680470685393692E+001
       H  2.6006491259842286E+000 -2.1362302081952581E+001 -7.4209532105957248E+000
       H  4.0217202671603927E+000 -2.0659375918361462E+001 -7.1956708281007007E+000
       O  3.5861558090818262E+000 -2.1475748900704936E+001 -7.6608017416224516E+000
       H  6.8504388262165588E+000  2.4312283447682352E+000  1.4309259144861196E+001
       H  7.4244445807573403E+000  3.6415839523573243E+000  1.3835063949626978E+001
       O  6.5383374151674287E+000  3.2813052948654993E+000  1.3995212424658458E+001
       H  1.4869389065025821E+001  1.8689638685037188E+001 -1.7625390074790673E+001
       H  1.5630126929258974E+001  1.8213965812335996E+001 -1.6512822508998525E+001
       O  1.4690849656869526E+001  1.8505734873971722E+001 -1.6674319464719623E+001
       H  1.4468096619240054E+001 -9.2566806304708464E+000 -2.0966937351377073E+001
       H  1.5284586870460876E+001 -1.0512470954197921E+001 -2.0400046827111336E+001
       O  1.4879089979601014E+001 -1.0076269214481922E+001 -2.1236574504788930E+001
       H  1.5257409837326781E+001 -2.2501996276407771E-001  2.7627321947512627E+001
       H  1.3696451325964032E+001  7.0208839322604216E-002  2.7517776365678671E+001
       O  1.4287368498255393E+001 -6.7494240033309838E-001  2.7684302067426252E+001
       H  2.1447865154561157E+001  5.5780076974992436E+000  2.1141630012534179E+001
       H  2.0151774773709334E+001  5.9914909082635894E+000  2.1957890231745669E+001
       O  2.0577100527793803E+001  5.9943236631274663E+000  2.1021289433034141E+001
       H  1.6700604360201851E+001  1.8320539852495411E+001  1.1255384286441622E+001
       H  1.7804550569668699E+001  1.8892850065401035E+001  1.0486374840695511E+001
       O  1.6857681721772241E+001  1.9062572115135374E+001  1.0653606222633607E+001
       H  2.6225730126914724E+000  5.0641705366579004E-001  2.9509563872337470E+000
       H  2.6406237459308830E+000  1.4207831238327511E+000  1.8215938682353805E+000
       O  3.2485698728866996E+000  9.2371919408063163E-001  2.3247081933185614E+000
       H  2.1164856466789058E+001  2.2337547885195978E+001 -5.7311587503569603E+000
       H  1.9594297011495616E+001  2.1959157716764238E+001 -5.7674534764392051E+000
       O  2.0214915219897083E+001  2.2645931065148478E+001 -5.8599709308529588E+000
       H  2.4801631010415441E+000  3.2958356751979373E+001  1.4335571912196029E+001
       H  3.7116832491705924E+000  3.3575051182319676E+001  1.5314777059716498E+001
       O  2.8266751523066360E+000  3.3706976021090696E+001  1.4777005815510163E+001
       H  1.4999271521818445E+001  2.8079350795256586E+000  1.2395828200820912E+001
       H  1.4594836661077927E+001  1.6458223793958822E+000  1.3335906142209831E+001
       O  1.4351832092169266E+001  2.5083372995874096E+000  1.2980072711085427E+001
       H  1.5625365631966048E+001  1.5991644861807686E+001 -1.6741541422100845E+001
       H  1.4033064633347589E+001  1.5956399144335455E+001 -1.6880659551489675E+001
       O  1.4806095919993119E+001  1.5396896906173204E+001 -1.6734195658501104E+001
       H -8.7284844218282309E+000  1.4340312701793561E+001  8.1756859297985418E+000
       H -8.6360216655792073E+000  1.5169969978267416E+001  6.9434193173975176E+000
       O -9.2955533360723148E+000  1.4589264605369573E+001  7.4252090641447435E+000
       H  9.4061317531947832E+000  3.7856438093096166E+001  1.1584272546331793E+001
       H  9.7819604316935074E+000  3.7852068711019811E+001  1.3068391239609795E+001
       O  9.0339369627071555E+000  3.8065911550097134E+001  1.2487869934501415E+001
       H  5.3844603932481494E+000  6.0898892252331542E+000  1.9472186890614008E+001
       H  5.0372318457437748E+000  5.2786129097122396E+000  1.8295652938763560E+001
       O  4.9553533152609086E+000  6.1797090083938864E+000  1.8565670898765731E+001
       H -3.7369302791005352E+000  1.9167400624626890E+001 -1.6256458944180037E+000
       H -2.7568068206815535E+000  1.8733728104675741E+001 -4.0769651479359420E-001
       O -3.3874657729537061E+000  1.8490862124116056E+001 -1.0775895619356330E+000
       H -5.9582592392566580E+000  1.7234451402195067E+001  2.1148125817160899E+001
       H -7.4364390882876075E+000  1.7109417594255831E+001  2.0381013768826399E+001
       O -6.7075728759164193E+000  1.6591062396338948E+001  2.0775427273219329E+001
       H  1.5912681207186465E+001 -2.9595415372215665E+000  5.4808984897944280E+000
       H  1.7364051862052882E+001 -2.7530557074277859E+000  5.8381987779187590E+000
       O  1.6449312687144822E+001 -2.5725830877345541E+000  6.1348255298505903E+000
       H -3.0704868547981381E+001  1.3140502188457148E+000  2.1053172248704907E+001
       H -2.9861798384343395E+001  3.8375473686241035E-001  2.1770444127681454E+001
       O -3.0203502628138288E+001  1.3114693557160968E+000  2.1881938643054646E+001
       H  9.3125512105607751E+000  7.5293468219643245E+000  1.1651893000913226E+001
       H  1.0415599912205831E+001  7.1200148910616017E+000  1.2829162078991031E+001
       O  9.4936038682139472E+000  7.1328582621048264E+000  1.2535279304165625E+001
       H  1.5884201287699975E+001 -1.3771704070895249E+001  2.1994138410898660E+001
       H  1.5110829417504807E+001 -1.5022523697558089E+001  2.2055911518032254E+001
       O  1.5777395853213914E+001 -1.4561181457074653E+001  2.2505446747707541E+001
       H  5.9752219445986043E-001  1.3078360834524631E+001 -6.1185444596037897E+000
       H  8.7537916740602295E-001  1.4074054608594667E+001 -7.2876540982055262E+000
       O  4.9968576430788908E-001  1.3201780942556770E+001 -7.0792267094697259E+000
       H  1.8755336324324617E+001  6.6576529507603581E+000  1.6395017310336272E+001
       H  2.0305582134522645E+001  6.5002238982378859E+000  1.6614550624391157E+001
       O  1.9478065590802963E+001  6.7723526112355827E+000  1.7035601102542028E+001
       H  2.7246433174988645E+000  1.0307486575968611E+001  2.5739714772931510E+001
       H  1.9485104939375932E+000  8.9547537722319781E+000  2.6057105079959086E+001
       O  2.0444242258262082E+000  9.5872014845191167E+000  2.5388162093908168E+001
       H  3.8310636409441123E+000 -6.3804400055828632E+000 -7.0174683373424784E-001
       H  2.7522152094937824E+000 -6.3605086254736083E+000 -1.7627755820612407E+000
       O  3.1711751611743262E+000 -6.9848894292115062E+000 -1.1120518041406284E+000
       H  3.9228306214937883E+000  8.5684102025684918E+000  1.5623784300267287E+001
       H  3.9625402344266325E+000  9.8395077439246581E+000  1.6331158495385534E+001
       O  4.2454046132184322E+000  9.4650103459509278E+000  1.5469263017809805E+001
       H  6.1700555651238052E+000  2.5390467649179360E+001  3.3522943809079592E+001
       H  5.9581240900655956E+000  2.4070683002263507E+001  3.2851640503773588E+001
       O  5.6625764378736996E+000  2.4957681275993391E+001  3.2787409440624224E+001
       H  8.7290236822099416E+000  3.5571683267700536E+001 -5.0636632128503201E-001
       H  8.5897024660222350E+000  3.4038808990920451E+001 -6.6790361464925407E-001
       O  8.2983686941992545E+000  3.4776838438069049E+001 -1.4688608088769348E-001
       H -4.9349472198073126E-002  1.0806556048272027E+001  1.1543617155280952E+001
       H  7.1387070082255422E-001  1.1428645228294558E+001  1.0397809933366966E+001
       O  4.1091736886853963E-001  1.0536721497892451E+001  1.0650952381394136E+001
       H  1.4859595602050790E+001  1.3945561492054026E+001 -1.9616545890494155E+001
       H  1.5573795794249810E+001  1.4796977514686061E+001 -2.0634296488867594E+001
       O  1.4679007584478914E+001  1.4330143288415462E+001 -2.0524520127129321E+001
       H  1.2704061499296815E+001 -2.1236741535440262E+000  1.5196701298733403E+001
       H  1.3536429740296365E+001 -2.5468387404485755E+000  1.6287405733824414E+001
       O  1.2737289743063878E+001 -2.0661620380412966E+000  1.6136535642552921E+001
       H  1.6721371451434941E+001  9.7166985768981533E+000  1.9268616493171596E+001
       H  1.5405830564896819E+001  9.1444418444514035E+000  1.9998439656123892E+001
       O  1.5978837870737449E+001  1.0033717153190203E+001  1.9825341923693582E+001
       H  2.7889555196890090E+001 -4.4280829614597915E-002  1.9882371197273883E+001
       H  2.6655458054610261E+001 -9.6646251247968695E-001  1.9993933364455295E+001
       O  2.7446865381694028E+001 -6.7811151536638170E-001  2.0516070694747970E+001
       H  2.0170087675595465E+001  1.4762000816588394E+001  2.2182756732472825E+001
       H  2.0017269238753290E+001  1.4346372868220815E+001  2.0762351720243188E+001
       O  2.0663948733841210E+001  1.4772077401743291E+001  2.1326791262108554E+001
       H  1.3050647894355395E+001  5.0099011833102027E+000 -5.7694356531246527E+000
       H  1.2861712430617480E+001  5.9753527234941384E+000 -4.7177768470467427E+000
       O  1.2305628783856031E+001  5.4728178067126345E+000 -5.2814419002048139E+000
       H -3.3400904608738418E+000  1.2985446638058013E+001 -4.6261734388119038E+000
       H -3.2378023734864669E+000  1.4398219039674000E+001 -4.3082904867077199E+000
       O -3.3772902414254000E+000  1.3898279115999390E+001 -5.0329476452250645E+000
       H  8.4836286815898259E+000  7.6915145525255078E+000  1.3932752040218602E+001
       H  7.4123438491683755E+000  8.6471229322677150E+000  1.4572618570788601E+001
       O  7.9533442320422711E+000  7.8427411933920563E+000  1.4767743213482655E+001
       H -1.7206950240502710E+001 -3.9704863585506307E+000  6.4040440319708409E+000
       H -1.6086782792386181E+001 -3.6181925455471515E+000  5.5229329690755495E+000
       O -1.6987455108634748E+001 -3.5820016382131334E+000  5.6040498995924919E+000
       H -1.8342492986995465E-001  9.0517165697670450E+000 -4.9089411787443122E+000
       H -1.4900694983220821E+000  9.7662171136830906E+000 -4.5366356047400132E+000
       O -5.4224196326030838E-001  9.8762774431745779E+000 -4.6144189507600606E+000
       H  1.3790818584122070E+001  9.0655324559637638E+000  8.5914693543540928E+000
       H  1.2535155143740758E+001  8.1610591336750584E+000  8.1415020846812602E+000
       O  1.3301164702771194E+001  8.6673030528100377E+000  7.8460231962696989E+000
       H  2.0469179649458753E+000  1.1429380695699013E+001  4.8183498230471402E+000
       H  2.1102678287037895E+000  1.2934636176967393E+001  3.9892023139497321E+000
       O  2.1634374003310275E+000  1.1935920605808226E+001  4.0156457341682437E+000
       H  1.0858783275279896E+001  1.6933984165533857E+001 -9.4369500118256227E+000
       H  1.1549086410207057E+001  1.7347746941148372E+001 -7.9866413308156705E+000
       O  1.0844459654915930E+001  1.6872907177868715E+001 -8.4261554561168328E+000
       H  1.7241849243126641E+001  1.7552472412826109E+001  1.5550028291632415E+001
       H  1.6032778797087293E+001  1.7276961267841553E+001  1.6328711027423015E+001
       O  1.6918524004354797E+001  1.6959478807468358E+001  1.6152134061941290E+001
       H  4.9759503295401384E+000 -5.7567297028504445E+000 -1.2907020519276614E+001
       H  5.4047671180574470E+000 -5.6675707843778111E+000 -1.1479918753949901E+001
       O  5.0178791864621193E+000 -5.0735845989137456E+000 -1.2174173630261610E+001
       H  4.2124588873621933E+000  1.2865735667552306E+001  3.0415211712934798E+000
       H  5.5060802830274209E+000  1.1994267531488914E+001  2.9633689106995731E+000
       O  5.1229390023101287E+000  1.2814303324685110E+001  3.4010641893358105E+000
       H  1.2084402307357887E+001  8.9839124620724533E+000  1.0897904051470309E+001
       H  1.2024626114367532E+001  7.3825139673767524E+000  1.1347574970736220E+001
       O  1.2509225638029829E+001  8.0810339730094931E+000  1.0900953241747365E+001
       H  2.9024647156607335E+000  1.0512974935504655E+000 -7.6504604231168365E+000
       H  2.1732475048085464E+000  2.8156879016496789E-001 -8.5700425357311190E+000
       O  2.8764009489636639E+000  1.0765480692787613E-001 -7.8323996585339364E+000
       H  3.3873090603976856E+000  1.4280653238552629E+001  8.3446945158613453E+000
       H  1.9987784877940269E+000  1.4704428222504021E+001  8.2492350613429757E+000
       O  2.8417056680741388E+000  1.4967150652454102E+001  7.9046785975324507E+000
       H -8.2306241581120130E+000 -4.9763438353385929E+000  1.8248843303788441E+001
       H -7.0796538277236154E+000 -4.0126837681765153E+000  1.8286262875768109E+001
       O -8.0268258483228259E+000 -4.0968771360592955E+000  1.8048856797559747E+001
       H  1.7466112718360669E+001  1.4705328931605564E+000  1.5059740418931398E+001
       H  1.6712085766893470E+001  2.5573101418667359E+000  1.6037847136077044E+001
       O  1.7078527871520318E+001  2.3798972756803463E+000  1.5159993586784346E+001
       H  1.4559712957374552E+001 -3.2759145858790242E+000  2.8295289341355382E+001
       H  1.4273722678076140E+001 -4.5996450898585106E+000  2.7796517704333585E+001
       O  1.4666525291585444E+001 -4.1567622602664933E+000  2.8633641906189059E+001
       H  1.7897740704397467E+001  4.0877227710426473E-001  2.2115167545701464E+001
       H  1.7520331155310856E+001  1.8183740557436134E+000  2.1490737176053660E+001
       O  1.8198025274294459E+001  1.0273399439785036E+000  2.1316771159489978E+001
       H  1.1395788129721614E+001  2.9433336449020855E+000 -3.3843528974535708E+000
       H  1.1692631113340697E+001  2.7167919636872462E+000 -4.7817757782697949E+000
       O  1.1525468342595026E+001  2.1957509564411160E+000 -4.0156912722290912E+000
       H  9.7399937343058305E+000 -6.5001414461924449E+000 -4.3489023141312364E+000
       H  1.1055804394381514E+001 -5.9268087927205766E+000 -4.8185276078263648E+000
       O  1.0548101526178526E+001 -6.0347524178075362E+000 -3.9969318973046906E+000
       H  3.2568274149875187E+001  1.6431128362359509E+001  1.2822881243494020E+001
       H  3.1953523796378033E+001  1.5423479249312104E+001  1.3704584011781058E+001
       O  3.1732527765061423E+001  1.6256658789863057E+001  1.3291393739202483E+001
       H  2.1050405948545521E+001  6.4117222415660891E+000  8.3791049637646999E+000
       H  1.9845972724000344E+001  6.9203723170990949E+000  9.1610018926511625E+000
       O  2.0068888667501049E+001  6.6216923093228059E+000  8.2724175023931021E+000
       H  8.3191365750358734E+000 -6.3467296883204831E+000  7.9933896741736108E+000
       H  7.4745693429621678E+000 -7.3436990498234342E+000  8.7664977509822819E+000
       O  7.9872709319226498E+000 -7.2735545632078251E+000  7.9643764365699461E+000
       H -5.0667790145202938E+000  9.7664641735940769E+000  3.5979361440592350E+000
       H -5.6653591754310337E+000  8.5094603497596477E+000  4.2940720547808233E+000
       O -5.5607083136048550E+000  8.9140768708799580E+000  3.3968025194128124E+000
       H  1.6805344498122796E+001 -1.1994834599152403E+001  6.3395912382513664E-001
       H  1.5761693614425299E+001 -1.2703787257096305E+001 -5.7461642270062319E-001