 # Version information for this restart file 
 # current date 2025-03-31 18:14:56.082
 # current working dir /ccc/scratch/cont003/gen2309/sicilana/NPT/128_H2O_4_NaCl_10_wt_673K_1000bar/BATCH_11_MD_T_673_P_1000_steps_1000_dt_0.5_NH2O_128_NaCl_4_abc_17.19_17.19_17.19_wt_9.20
 # Program compiled at                                       2024-10-31 15:04:21
 # Program compiled on                                                 topaze131
 # Program compiled for                                                   x86_64
 # Source code revision number                                                  
 &GLOBAL
   PRINT_LEVEL LOW
   PROJECT_NAME "brines"
   RUN_TYPE MD
   FLUSH_SHOULD_FLUSH T
 &END GLOBAL
 &MOTION
   &MD
     ENSEMBLE NPT_I
     STEPS 1000
     TIMESTEP  4.9999999999999994E-001
     STEP_START_VAL 26350
     TIME_START_VAL  1.3175000000006612E+004
     ECONS_START_VAL -2.4590398713531335E+003
     TEMPERATURE  6.7300000000000011E+002
     &BAROSTAT
       PRESSURE  1.0000000000000000E+003
       TIMECON  9.9999999999999989E+002
       &VELOCITY
          -2.7322396310604220E-006
       &END VELOCITY
       &MASS
           4.2836593343398705E+007
       &END MASS
       &THERMOSTAT
         TYPE CSVR
         &CSVR
           TIMECON  9.6755373060191388E+001
           &THERMOSTAT_ENERGY
               1.0580892597224303E-003
           &END THERMOSTAT_ENERGY
           &RNG_INIT
 Wiener process for Thermostat # 1        1 F T F  -6.7505944852273236E-01        4052873060.0         957975499.0         332480804.0        1029675212.0        3827233986.0        2581548395.0             12345.0             12345.0             12345.0             12345.0             12345.0             12345.0             12345.0             12345.0             12345.0             12345.0             12345.0             12345.0
           &END RNG_INIT
         &END CSVR
       &END THERMOSTAT
     &END BAROSTAT
     &THERMOSTAT
       TYPE CSVR
       &CSVR
         TIMECON  9.9999999999999989E+002
         &THERMOSTAT_ENERGY
            -7.9082338966714993E-001
         &END THERMOSTAT_ENERGY
         &RNG_INIT
 Wiener process for Thermostat # 1        1 F T F   2.8455699075638013E-01        1215838937.0        3747091219.0        2982416899.0        3836958196.0        1300117911.0        3327398069.0             12345.0             12345.0             12345.0             12345.0             12345.0             12345.0             12345.0             12345.0             12345.0             12345.0             12345.0             12345.0
         &END RNG_INIT
       &END CSVR
     &END THERMOSTAT
     &AVERAGES T
       &RESTART_AVERAGES
         ITIMES_START 1
         AVECPU  2.3077559102192446E+001
         AVEHUGONIOT  0.0000000000000000E+000
         AVETEMP_BARO  3.0636335091857046E+002
         AVEPOT -2.4597179967817915E+003
         AVEKIN  1.2221693816426098E+000
         AVETEMP  6.5802234640401264E+002
         AVEKIN_QM  0.0000000000000000E+000
         AVETEMP_QM  0.0000000000000000E+000
         AVEVOL  3.8616172780126421E+004
         AVECELL_A  3.3724157008978089E+001
         AVECELL_B  3.3724157008978089E+001
         AVECELL_C  3.3724157008978089E+001
         AVEALPHA  9.0000000000000000E+001
         AVEBETA  9.0000000000000000E+001
         AVEGAMMA  9.0000000000000000E+001
         AVE_ECONS -1.3138261927554501E+002
         AVE_PRESS  3.9069235904521969E+002
         AVE_PXX  3.6594859231705266E+002
       &END RESTART_AVERAGES
     &END AVERAGES
   &END MD
   &PRINT
     &TRAJECTORY SILENT
       FILENAME =brines-1.xyz
       &EACH
         MD 1
       &END EACH
     &END TRAJECTORY
     &CELL SILENT
       FILENAME =brines-1.cell_xyz
       &EACH
         MD 1
       &END EACH
     &END CELL
     &VELOCITIES SILENT
       FILENAME =brines-1.vel
       &EACH
         MD 1
       &END EACH
     &END VELOCITIES
     &FORCES SILENT
       FILENAME =brines-1.force
       &EACH
         MD 1
       &END EACH
     &END FORCES
     &STRESS SILENT
       FILENAME =brines-1.stress
       &EACH
         MD 1
       &END EACH
     &END STRESS
     &RESTART SILENT
       FILENAME =brines-1.restart
       &EACH
         MD 1
       &END EACH
     &END RESTART
     &RESTART_HISTORY SILENT
       &EACH
         MD 50
       &END EACH
     &END RESTART_HISTORY
   &END PRINT
 &END MOTION
 &FORCE_EVAL
   METHOD QS
   STRESS_TENSOR ANALYTICAL
   &DFT
     BASIS_SET_FILE_NAME /ccc/work/cont003/gen2309/sicilana/DATA_CP2K/GTH_BASIS_SETS
     POTENTIAL_FILE_NAME /ccc/work/cont003/gen2309/sicilana/DATA_CP2K/GTH_POTENTIALS
     &SCF
       MAX_SCF 50
       EPS_SCF  9.9999999999999995E-008
       &OT T
         MINIMIZER DIIS
         PRECONDITIONER FULL_SINGLE_INVERSE
       &END OT
       &OUTER_SCF T
         EPS_SCF  9.9999999999999995E-008
         MAX_SCF 50
       &END OUTER_SCF
     &END SCF
     &QS
       EPS_DEFAULT  1.0000000000000000E-014
       EPSFIT  9.9999999999999995E-007
       EPSISO  9.9999999999999998E-013
       EPSRHO0  1.0000000000000000E-008
       QUADRATURE GC_LOG
       EXTRAPOLATION ASPC
       METHOD GAPW
     &END QS
     &MGRID
       NGRIDS 4
       CUTOFF  6.0000000000000000E+002
       REL_CUTOFF  6.0000000000000000E+001
     &END MGRID
     &XC
       DENSITY_CUTOFF  1.0000000000000000E-010
       GRADIENT_CUTOFF  1.0000000000000000E-010
       TAU_CUTOFF  1.0000000000000000E-010
       &XC_FUNCTIONAL NO_SHORTCUT
         &PBE T
           PARAMETRIZATION REVPBE
         &END PBE
       &END XC_FUNCTIONAL
       &VDW_POTENTIAL
         POTENTIAL_TYPE PAIR_POTENTIAL
         &PAIR_POTENTIAL
           R_CUTOFF  1.2000000000000000E+001
           TYPE DFTD3
           PARAMETER_FILE_NAME /ccc/work/cont003/gen2309/sicilana/DATA_CP2K/dftd3.dat
           REFERENCE_FUNCTIONAL "PBE"
           CALCULATE_C9_TERM T
           REFERENCE_C9_TERM T
           VERBOSE_OUTPUT T
           D3_EXCLUDE_KIND 3
         &END PAIR_POTENTIAL
       &END VDW_POTENTIAL
     &END XC
     &REAL_TIME_PROPAGATION
       INITIAL_WFN RT_RESTART
     &END REAL_TIME_PROPAGATION
     &PRINT
       &MO_CUBES SILENT
         WRITE_CUBE F
         NLUMO 10
         NHOMO 2
         &EACH
           MD 200
         &END EACH
       &END MO_CUBES
       &MOMENTS ON
         ADD_LAST NUMERIC
         COMMON_ITERATION_LEVELS 20000
         FILENAME =brines-1.dipoles
         REFERENCE COM
         &EACH
           MD 1
         &END EACH
       &END MOMENTS
     &END PRINT
   &END DFT
   &SUBSYS
     &CELL
       A  1.8899764036163251E+001  0.0000000000000000E+000  0.0000000000000000E+000
       B  0.0000000000000000E+000  1.8899764036163251E+001  0.0000000000000000E+000
       C  0.0000000000000000E+000  0.0000000000000000E+000  1.8899764036163251E+001
       MULTIPLE_UNIT_CELL 1 1 1
     &END CELL
     &COORD
       H  1.0996364843532424E+001  2.2825657889374291E+001  1.1240273844559168E+000
       H  9.7068840845840203E+000  2.3111308025913814E+001  1.9291496955690224E+000
       O  1.0625130620753863E+001  2.2797371756393797E+001  2.0984319066074955E+000
       H  8.4768227831768108E+000 -9.0202559338243820E+000  2.1713243186864259E+000
       H  7.5779270078846990E+000 -9.5999475534221670E+000  3.1588316355462784E+000
       O  7.7708540468079654E+000 -8.7590172825365435E+000  2.8173308880597907E+000
       H -1.0392602605370515E+001  4.7521170528301653E+001  4.6986114229148946E+001
       H -9.2306893903873934E+000  4.6454790459141179E+001  4.6771014033724022E+001
       O -1.0156629367464200E+001  4.6613639490694354E+001  4.7124216499604351E+001
       H  7.9975693586714307E+000  2.4286796076817581E+001  2.3033160632806347E+001
       H  9.3776924016477921E+000  2.3532334114834502E+001  2.2769494159378649E+001
       O  8.4212656888725039E+000  2.3419060221307578E+001  2.2678697672183123E+001
       H -1.0551060576866194E+001  5.7662361638530770E+000  9.2535467102215012E+000
       H -1.0487436557264136E+001  7.1245457768435587E+000  9.7072944564296169E+000
       O -1.0383672149728207E+001  6.2135196849177623E+000  1.0057422315840274E+001
       H  3.2629895183193845E+001  2.8595853288027154E+001 -5.9690332711359977E+000
       H  3.2252301903557004E+001  2.7362157340290580E+001 -6.8500148784310149E+000
       O  3.2990797307884769E+001  2.8011596933139867E+001 -6.5946567199965216E+000
       H -5.0834434340689318E+000  5.0749544011035752E+000  8.8722659008366112E+000
       H -5.0453276602839523E+000  4.6276287359836434E+000  1.0316225619929421E+001
       O -5.6753474703178837E+000  4.8526198716061941E+000  9.6568721201737411E+000
       H  2.4467488563585267E+001 -1.0143278498169497E+000 -3.2289983380334228E+000
       H  2.5461339063587136E+001 -9.6464069592646695E-001 -2.1728460142735555E+000
       O  2.4584648745175272E+001 -1.2588931675507504E+000 -2.2361548929744561E+000
       H  2.0909282446410479E+001  1.3317122373579494E+001  1.4929820913666099E+001
       H  2.1797209215805815E+001  1.3602533263011946E+001  1.3911151938017454E+001
       O  2.1260270695855898E+001  1.4078400194748177E+001  1.4558290955303857E+001
       H  2.4015581073796127E+001 -1.7259754796228538E-001  2.3618329310388123E+001
       H  2.3694934314637255E+001 -1.6796373865925323E+000  2.4035279050643201E+001
       O  2.4146573924983919E+001 -1.0262523213607553E+000  2.3331370295834830E+001
       H  4.5810319177596615E+000  7.5975407543693430E-001 -9.8074257795764002E+000
       H  3.4326253053991200E+000  4.1366252410107529E-001 -1.0765046711508869E+001
       O  4.4473450740135450E+000  3.3421460276164944E-001 -1.0658369532564913E+001
       H  1.2529603766632073E+001  3.6490953289839734E+000  2.3606441649813231E+001
       H  1.1554590279697740E+001  3.9600737456910697E+000  2.2325085372510909E+001
       O  1.1958598295387947E+001  4.3780677809356243E+000  2.3160027056773096E+001
       H  1.7279151999835005E+001  1.3724239319044099E+001  2.4982141915260052E+000
       H  1.6171273787285241E+001  1.4390491991441269E+001  3.3325897201257160E+000
       O  1.6984560540551094E+001  1.3736616150846304E+001  3.4286046525107032E+000
       H  6.1750744653223304E+000 -9.9439628925481536E+000 -8.2192233488421995E-001
       H  6.4759781186407341E+000 -1.1350531097072361E+001 -1.2552923462580559E+000
       O  6.8358234846217147E+000 -1.0479517427595347E+001 -1.3407871480148117E+000
       H  2.9727217551406977E+001  3.6827440500239078E+001  5.2044795637464092E-001
       H  3.0707626903310494E+001  3.6674581270341257E+001 -6.9538400002514666E-001
       O  2.9795358886887605E+001  3.6368380931034856E+001 -3.6931054620757087E-001
       H  1.4877835185873275E+001  2.1866162729721701E+000 -1.1251895476096299E+001
       H  1.3907448146447281E+001  2.4608940174197786E+000 -1.0114889583457366E+001
       O  1.4765349510799592E+001  2.1371531393682113E+000 -1.0350198541661333E+001
       H  1.9844470491233107E+001  6.6413332658761470E-001  5.3663255079994698E+000
       H  2.0044001959167286E+001  2.6520927165832064E-001  6.8089170376594090E+000
       O  1.9907652887829116E+001  1.0721019414584769E+000  6.2249498995123398E+000
       H  9.3375065838546281E+000 -7.1248934923201812E-001  1.7651637417794383E+001
       H  8.4161799432313806E+000  8.3522404409506409E-002  1.6708840935395095E+001
       O  8.4645614492484391E+000 -6.9345086602269757E-001  1.7234855710448915E+001
       H  4.5417208346310476E+000  1.7567661954411765E+001  7.5669378592388057E+000
       H  4.4660082377516881E+000  1.6002814608442364E+001  7.3030762342649744E+000
       O  4.2253483209139819E+000  1.6870026311564757E+001  7.0021776630987143E+000
       H  2.0002014289184128E+001  2.6635033201718691E+001  1.5587595150131732E+000
       H  2.1081535770450476E+001  2.6029010087885826E+001  2.2440777179295419E+000
       O  2.0120640942749521E+001  2.6205008134887592E+001  2.4459310960484770E+000
       H  1.6215711971287742E+001  1.1920890610386243E+001  2.1058194566262102E+001
       H  1.6483446438110253E+001  1.2571947860525187E+001  1.9626173830053634E+001
       O  1.6770971655551751E+001  1.1888809536851641E+001  2.0243427061650642E+001
       H  1.0275043325488616E+001 -1.2410262641561580E+001  1.7337368296646602E+001
       H  9.1389047583319343E+000 -1.1717737768577907E+001  1.6818206453188651E+001
       O  1.0081704683499908E+001 -1.1545536249934925E+001  1.6923673944916228E+001
       H  2.6153769122860382E+001  1.4566266158889277E+001  2.2773279035204482E+001
       H  2.7662340161526682E+001  1.4359214226579709E+001  2.2721127022298077E+001
       O  2.7009309823598226E+001  1.4592844690429978E+001  2.3354117455092709E+001
       H -1.6971130228997783E+001  7.9510500606227827E+000  1.5124962698249043E+001
       H -1.7021945541691402E+001  6.5435463406074108E+000  1.4500612606112249E+001
       O -1.7020327449791008E+001  7.4870397068755432E+000  1.4290282285182837E+001
       H -3.9594747669050562E-001  5.6953735199974727E+000  6.0964405399062951E+000
       H  1.1206272488536528E+000  5.0668324704744485E+000  6.3575353117159716E+000
       O  4.8446693790850176E-001  5.8452561643735015E+000  6.5293335464846427E+000
       H -6.8293548047053241E+000 -1.4817294182993846E+001  1.7900835910444595E+001
       H -6.9082939263306562E+000 -1.6042861996488124E+001  1.8883306042064977E+001
       O -7.4341557575502515E+000 -1.5304810994137842E+001  1.8489950372172693E+001
       H  2.7385270767437962E+001  9.5193602891872331E+000 -4.7533967932688670E-001
       H  2.8765137421727442E+001  9.5654319354769051E+000  1.3822027103325427E-001
       O  2.7833939605662085E+001  9.7403142924834665E+000  4.4900994563535473E-001
       H  1.1543165059786975E+001 -2.2173983355124069E+000  2.5705278033142886E+001
       H  1.2631981562004064E+001 -1.5019534157412378E+000  2.4825766984937562E+001
       O  1.2182037196312695E+001 -2.2869070618159313E+000  2.5050749044016719E+001
       H -5.7516037667745401E+000  7.3318887646966999E+000 -3.8552489670755690E+000
       H -6.3830485880721470E+000  8.7049573021729145E+000 -3.5064746985346131E+000
       O -5.7768777281062551E+000  8.0665624842933941E+000 -3.1848437997349675E+000
       H  7.1901233218997334E+000  4.8248937399668703E+000  1.0110342464638233E+000
       H  8.3052957249035320E+000  5.3887897848071447E+000  1.9850076234063905E+000
       O  7.8396606958760442E+000  5.5286785253030395E+000  1.1309682201746858E+000
       H  9.8204815060383432E-001 -1.3439269043654365E+000  1.6074322334963660E+000
       H  2.6849024357487633E-001 -3.8207534685191280E-001  2.1792251709626269E+000
       O  6.8979283932598989E-001 -1.1688229296612354E+000  2.4818263034092252E+000
       H -3.2543280545385436E+000  2.2416973005670677E+001 -6.2253167083884895E+000
       H -2.1239771461836852E+000  2.2176071485969253E+001 -5.2070980767905022E+000
       O -2.9653182802128413E+000  2.2777238629331588E+001 -5.3519441471732243E+000
       H  2.3767030372494535E+001  2.4396816276262292E+001  1.2961239984957421E+001
       H  2.3850122054842029E+001  2.4508923718574987E+001  1.1423488218846414E+001
       O  2.3378730321260228E+001  2.4051264126389441E+001  1.2119114420983870E+001
       H  3.4581351381243008E+000 -1.9698256373554472E+001 -6.1089210308603734E+000
       H  2.6181490060194754E+000 -1.9005272454736446E+001 -7.1022981078030769E+000
       O  3.2875482205595650E+000 -1.9757132141654527E+001 -7.0153384493584570E+000
       H  8.7393409468783609E+000  2.5944523905851860E+000  1.2345161269923382E+001
       H  7.5637942779176930E+000  3.4365496120112460E+000  1.1840469567922774E+001
       O  7.7415422569869285E+000  2.5442074110250226E+000  1.2138527493046535E+001
       H  1.3333535559258761E+001  1.9688828302390270E+001 -1.7164601632245120E+001
       H  1.4005399886327027E+001  2.1008365116770030E+001 -1.7745552669445168E+001
       O  1.3300305165086780E+001  2.0389374668464061E+001 -1.7894258990233098E+001
       H  1.3758826097880021E+001 -8.9719966740770385E+000 -1.8514199086130283E+001
       H  1.3107460615754816E+001 -7.5545930407628452E+000 -1.9020256439896986E+001
       O  1.3144703876165281E+001 -8.4795420031720603E+000 -1.9158638023839416E+001
       H  1.3078518091237566E+001 -1.9951510242848383E+000  2.8770539222401162E+001
       H  1.3664482850402175E+001 -2.9416417212063570E+000  2.7660626696564197E+001
       O  1.3869258513330212E+001 -2.5069379492691453E+000  2.8484479936128739E+001
       H  2.1876182427409251E+001  5.0796999397304310E+000  1.8499634581780953E+001
       H  2.0487032901206131E+001  5.4935992883565756E+000  1.8247956248025030E+001
       O  2.1351613374795740E+001  5.8503209221284482E+000  1.8344295416368141E+001
       H  1.5357131928593928E+001  2.0523854038125794E+001  1.1793986646536762E+001
       H  1.5500560272240797E+001  2.0905031344918502E+001  1.0246946335427408E+001
       O  1.5846997937361255E+001  2.1111538049404807E+001  1.1169299091084138E+001
       H  3.2496388546730537E+000  1.3322562882411912E+000  4.1112289194077105E+000
       H  2.4441443945437720E+000  6.9465747413156087E-001  2.9957135870025287E+000
       O  3.2383938680629809E+000  1.2022851073716379E+000  3.1999705989484264E+000
       H  1.9533110261582571E+001  2.4323728797577669E+001 -6.7415736736399259E+000
       H  1.8387887946297059E+001  2.3483696542843795E+001 -6.0898583476476640E+000
       O  1.9357714488469629E+001  2.3566470030438236E+001 -6.0693021586264955E+000
       H  2.7523041373745474E+000  3.4628481934333500E+001  1.6208923925720001E+001
       H  3.8113485853733677E+000  3.4782315991426536E+001  1.7350745674657905E+001
       O  3.4871058635465837E+000  3.5145040125443373E+001  1.6513334299071794E+001
       H  1.2223054993778630E+001  1.1185556506528489E+000  1.1789201784958617E+001
       H  1.2645422130006844E+001  2.6273227733045950E+000  1.2171913519986076E+001
       O  1.2330126188160618E+001  1.7392804408117473E+000  1.2549087258020617E+001
       H  1.3164145159678636E+001  1.4926348628373148E+001 -1.6295597069548862E+001
       H  1.3516691040574340E+001  1.5594648525263985E+001 -1.7678278966458905E+001
       O  1.3683328703755425E+001  1.5620364247906402E+001 -1.6675549866449845E+001
       H -1.0499580360961586E+001  1.4808208869483686E+001  7.9027227041069494E+000
       H -9.3121962145079369E+000  1.4487046819327894E+001  6.9467649365724000E+000
       O -9.4155797285450564E+000  1.4848092404086790E+001  7.8296913039984615E+000
       H  9.1171116670634458E+000  3.7172212322872014E+001  1.3748921671557845E+001
       H  9.0307814029706837E+000  3.6021113968881522E+001  1.4716188021568962E+001
       O  9.3912265585440373E+000  3.6253048480667893E+001  1.3850055890765315E+001
       H  6.3736595367466986E+000  5.3727362814000230E+000  1.8345938609032661E+001
       H  5.8621943471227445E+000  5.3068254940770325E+000  1.6898086051665860E+001
       O  5.7072360499535133E+000  5.7393810074209490E+000  1.7699220838545457E+001
       H -2.1142322628006225E+000  2.0319888018435588E+001 -1.1035754557894826E+000
       H -9.5962707804352909E-001  1.9244391865793375E+001 -1.6617836901807970E+000
       O -1.1491943807720419E+000  2.0104435096304300E+001 -1.1130383275985920E+000
       H -6.2898278478117309E+000  1.7071607723052018E+001  2.2434371289268874E+001
       H -6.8487440807027840E+000  1.8541852739631288E+001  2.2611931372875109E+001
       O -6.1852387654149474E+000  1.7963392183431573E+001  2.2958209190027276E+001
       H  1.7902189387894872E+001 -3.0123156397862858E+000  5.5146461095163701E+000
       H  1.8575067096043135E+001 -2.2758700950688744E+000  6.7452942802315361E+000
       O  1.8499385705671902E+001 -3.1596835804521004E+000  6.2561703850677253E+000
       H -3.1884447674920093E+001  3.4019078205735616E+000  2.1825439131879836E+001
       H -3.3157071957141866E+001  2.9210843897135725E+000  2.1213974789301105E+001
       O -3.2346102450553708E+001  3.3986598708891598E+000  2.0960411225358786E+001
       H  9.2829915539777925E+000  9.3978902699146669E+000  1.1904946114433782E+001
       H  1.0293706658740588E+001  1.0335533701713144E+001  1.2326075781487424E+001
       O  9.4061999480112490E+000  1.0372065709460461E+001  1.1985722509083665E+001
       H  1.7741332929380771E+001 -1.6726758209493266E+001  2.2660664329007833E+001
       H  1.7165627265161120E+001 -1.6023570340324298E+001  2.3823093673103070E+001
       O  1.7360185769889934E+001 -1.5897771098635868E+001  2.2857581505251375E+001
       H  6.5081908752253437E-001  1.4789263348486434E+001 -5.2273138902517351E+000
       H -3.5844481782836107E-001  1.5906312391678963E+001 -4.8650277762450402E+000
       O -2.7827563755386298E-002  1.5417172880556935E+001 -5.6192717949843054E+000
       H  1.9128812925263233E+001  9.5494818812199629E+000  1.7314165228589101E+001
       H  1.8825985350582513E+001  1.0313170330002521E+001  1.6015664835485509E+001
       O  1.8963115117925117E+001  9.4746067552967084E+000  1.6346393890250983E+001
       H  3.4330620081039545E+000  1.0004802486763898E+001  2.5822992304580655E+001
       H  3.0001836341954435E+000  9.0802051737171929E+000  2.4694304568626293E+001
       O  2.7903231158381061E+000  9.3873498074833481E+000  2.5609840790790784E+001
       H  3.3747263189819634E+000 -7.6521950679945494E+000 -2.7004564743468933E+000
       H  3.6732219612142432E+000 -7.1349947093827861E+000 -1.3371694929165485E+000
       O  3.2585848744787258E+000 -6.8560886218693575E+000 -2.1725024851541042E+000
       H  4.5142674750363003E+000  8.4493122939098679E+000  1.6339672475270916E+001
       H  3.7284541042559161E+000  8.1749299528635238E+000  1.7728306600455241E+001
       O  4.0790235310644194E+000  8.7589680841855007E+000  1.7062709585233947E+001
       H  6.2292833683121378E+000  2.4537755875550751E+001  3.3000131537557344E+001
       H  6.1863218684205661E+000  2.3045459959997935E+001  3.3050909228660593E+001
       O  5.9810976177184321E+000  2.3780432420005237E+001  3.3593149112360578E+001
       H  8.9353027837158603E+000  3.2368576856588597E+001 -2.1896080131833506E+000
       H  9.8068221729972365E+000  3.3565221193942222E+001 -1.9821329368725902E+000
       O  9.1790282222465827E+000  3.2983921536197961E+001 -1.5174230646491929E+000
       H  2.1970596200630969E-002  9.5930610458737622E+000  1.1486294567237293E+001
       H  1.1681844493804024E-001  1.0905360352355574E+001  1.2240973242557374E+001
       O  4.4526344622573455E-001  1.0554998593746436E+001  1.1428181028479118E+001
       H  1.4797617731391068E+001  1.3760100940453043E+001 -2.0112934672840083E+001
       H  1.6195032700660121E+001  1.2993638600123205E+001 -2.0521208218645832E+001
       O  1.5655145237278969E+001  1.3376233296575611E+001 -1.9722027124698418E+001
       H  1.4079632355999236E+001 -1.9058142781375258E+000  1.5933795729879913E+001
       H  1.2689407587592523E+001 -2.5118647046949576E+000  1.6015199077372134E+001
       O  1.3189786693264121E+001 -1.8252323111282709E+000  1.6461143281377847E+001
       H  1.5427656846135129E+001  7.6933327435794485E+000  2.1213491391080403E+001
       H  1.5868127274696446E+001  9.0344867672814928E+000  2.1643668359038106E+001
       O  1.5416863875477144E+001  8.5630362187869320E+000  2.0873087278531639E+001
       H  2.7713580427639464E+001 -1.4690414411515320E+000  2.0843630893865100E+001
       H  2.8053179448603256E+001 -9.5632193957870959E-001  2.2260555730092118E+001
       O  2.8524326266483719E+001 -1.4094084866168914E+000  2.1439734350183862E+001
       H  1.9689273385304023E+001  1.4784795599172167E+001  1.9042794306354793E+001
       H  1.9541877076275739E+001  1.3517687293057991E+001  1.8255736215890035E+001
       O  2.0203429119269153E+001  1.4039249263693813E+001  1.8724080425358672E+001
       H  9.7753768544890782E+000  5.8835450345854330E+000 -5.1730801219607754E+000
       H  1.0820720944569256E+001  5.8187977656695002E+000 -4.0769716270455136E+000
       O  1.0739211889852246E+001  5.7829689962965354E+000 -5.0412283493897423E+000
       H -2.3645652013696012E+000  1.2046577140362528E+001 -4.3331671913310723E+000
       H -2.6089191404510093E+000  1.3470385064222954E+001 -4.9664418514378879E+000
       O -2.3806527459302309E+000  1.2503265521882193E+001 -5.2111626074146038E+000
       H  7.6831974981497577E+000  8.3188554786517788E+000  1.3650794350791358E+001
       H  7.7548590611627235E+000  7.6266663114335032E+000  1.2259877161760540E+001
       O  7.6068224722213174E+000  7.4687693605811658E+000  1.3194365778619801E+001
       H -1.7669886161649682E+001 -3.4551843896463925E+000  4.3389375859863879E+000
       H -1.6420622743168337E+001 -2.8678302081873182E+000  4.7615737306480286E+000
       O -1.6814402490994059E+001 -3.7045472969975117E+000  4.4691477215565163E+000
       H  2.2483242165401977E-002  7.7104665372157646E+000 -6.1225588370977748E+000
       H -1.2607922223934531E+000  7.6306965318488365E+000 -6.7896977437857027E+000
       O -3.8364574338357099E-001  7.8534762293816538E+000 -6.9744136847229328E+000
       H  1.3750063893097026E+001  8.6925109548796851E+000  8.0135898927777234E+000
       H  1.4192232248429391E+001  9.9071306153988701E+000  8.9317673402586930E+000
       O  1.4151415181819974E+001  9.5970825748784261E+000  8.0198337251994563E+000
       H  2.5258745775378637E+000  1.0532610264613139E+001  3.5271863922027191E+000
       H  1.6255095510839452E+000  9.5635652686078689E+000  3.3680161815798044E+000
       O  2.2644823982331457E+000  9.9814456033957075E+000  2.8509900843851024E+000
       H  1.0956135644375696E+001  1.6070216353913761E+001 -6.5936355496314594E+000
       H  1.1947307346768039E+001  1.4929885158079935E+001 -7.2891031966812445E+000
       O  1.1871981883809475E+001  1.5717872650641185E+001 -6.7615187485522563E+000
       H  1.5372837783654418E+001  1.7941944289945777E+001  1.3063971516754707E+001
       H  1.6075970687375936E+001  1.8454823931008999E+001  1.4251754387948131E+001
       O  1.5194175237490462E+001  1.8325106371490069E+001  1.3988686922945035E+001
       H  6.7500603217882338E+000 -4.4847108707388363E+000 -1.2479408630389244E+001
       H  5.9822644349708085E+000 -4.9062057581265419E+000 -1.1255004597342550E+001
       O  6.3937706878312204E+000 -4.1266244576894451E+000 -1.1654277025064351E+001
       H  5.0998047760719301E+000  1.1540625760383644E+001  6.9592606799797565E+000
       H  5.3924156621719179E+000  1.0667841620242662E+001  5.7233586839928074E+000
       O  5.0637695502286624E+000  1.1566305060303820E+001  5.9852875902500626E+000
       H  1.2173345783207276E+001  6.5393780396832195E+000  1.0556199053664077E+001
       H  1.2044386542847104E+001  7.6960844127704604E+000  9.5527657394697822E+000
       O  1.2530859950171777E+001  7.3794457058705900E+000  1.0354685299080534E+001
       H  8.1440994000681788E-001  2.2115907009102762E+000 -6.9120161883631432E+000
       H  4.5090439605545229E-001  1.3196358621083646E+000 -5.7045443807227958E+000
       O  1.0772839938957521E+000  1.4523610383338865E+000 -6.4629330362982662E+000
       H  2.2586265781778829E+000  1.4068941109749499E+001  6.9361368692799052E+000
       H  3.1469635984259390E+000  1.3324549318911282E+001  7.9601551718265409E+000
       O  2.6996532561232218E+000  1.4179620390494424E+001  7.7598047628300657E+000
       H -7.6470810824937718E+000 -5.8487886188442486E+000  1.7507749542993238E+001
       H -6.3831786626266993E+000 -6.8678403310154481E+000  1.7100391493695284E+001
       O -6.6641510747300901E+000 -6.1080957631402315E+000  1.7636167822104575E+001
       H  1.8982418282043437E+001  2.8240129088410577E+000  1.5335659873633359E+001
       H  1.8267922122319074E+001  1.3719417769761719E+000  1.5375744456188071E+001
       O  1.8354231340671021E+001  2.2468152534000447E+000  1.4900328421530098E+001
       H  1.5827394874404815E+001 -3.6688754543179272E+000  2.8572772976745856E+001
       H  1.6743995155027211E+001 -4.9269826436883140E+000  2.8452113299391712E+001
       O  1.6464938533450791E+001 -4.2651473366140582E+000  2.9093363851897141E+001
       H  1.8461324310528433E+001  1.1389094420750649E+000  1.9573918998380453E+001
       H  1.8815427702211647E+001  2.2493796478666788E+000  2.0385460033222873E+001
       O  1.8635829070056886E+001  1.3634632847751953E+000  2.0507708566373310E+001
       H  1.0246270904095571E+001  2.1359592754498644E+000 -4.0117219645704267E+000
       H  1.0664122555702429E+001  2.1161802414217377E+000 -5.4408236246325332E+000
       O  9.9112274179430049E+000  1.9114697002783745E+000 -4.9280346042195751E+000
       H  1.0781031057285302E+001 -5.9023244477885006E+000 -5.3417041768706133E+000
       H  1.1691713032632512E+001 -6.2050576948823775E+000 -4.2741011531838282E+000
       O  1.0765341178552701E+001 -6.1535350040940537E+000 -4.4681184678408474E+000
       H  3.2738383269598053E+001  1.5194873479191772E+001  1.2918401551011026E+001
       H  3.3973356082673419E+001  1.5125353825082660E+001  1.2244215110074572E+001
       O  3.3616409374974616E+001  1.4893906759548264E+001  1.3124497973753140E+001
       H  1.9097876557999449E+001  9.4405178743413352E+000  8.7610071452924778E+000
       H  2.0018953368909177E+001  8.8914098758529132E+000  7.7464180077821609E+000
       O  1.9028709605663092E+001  9.0473105704123729E+000  7.9027624008832777E+000
       H  8.3643745766509934E+000 -7.2047396539583799E+000  7.4699189138397051E+000
       H  9.0010643889870678E+000 -6.6009755373361942E+000  8.8223378228978788E+000
       O  8.8393972747657834E+000 -7.4338613557182196E+000  8.2926738259196302E+000
       H -5.7639799638059523E+000  6.3762057912994834E+000  4.4388707705093315E+000
       H -4.8885081344718975E+000  6.8453699998261737E+000  5.5816068912787138E+000
       O -5.2329729578938586E+000  7.1983385063207725E+000  4.7407522625119558E+000
       H  1.4005199018271824E+001 -1.4618838034257843E+001 -2.5784211969753787E+000
       H  1.4292608678612106E+001 -1.3476179540868033E+001 -1.5721200831199771E+000