 # Version information for this restart file 
 # current date 2025-03-31 21:37:59.516
 # current working dir /ccc/scratch/cont003/gen2309/sicilana/NPT/128_H2O_4_NaCl_10_wt_673K_1000bar/BATCH_11_MD_T_673_P_1000_steps_1000_dt_0.5_NH2O_128_NaCl_4_abc_17.19_17.19_17.19_wt_9.20
 # Program compiled at                                       2024-10-31 15:04:21
 # Program compiled on                                                 topaze131
 # Program compiled for                                                   x86_64
 # Source code revision number                                                  
 &GLOBAL
   PRINT_LEVEL LOW
   PROJECT_NAME "brines"
   RUN_TYPE MD
   FLUSH_SHOULD_FLUSH T
 &END GLOBAL
 &MOTION
   &MD
     ENSEMBLE NPT_I
     STEPS 1000
     TIMESTEP  4.9999999999999994E-001
     STEP_START_VAL 26700
     TIME_START_VAL  1.3350000000006343E+004
     ECONS_START_VAL -2.4590398713531335E+003
     TEMPERATURE  6.7300000000000011E+002
     &BAROSTAT
       PRESSURE  1.0000000000000000E+003
       TIMECON  9.9999999999999989E+002
       &VELOCITY
          -6.0410764215554029E-007
       &END VELOCITY
       &MASS
           4.2836593343398705E+007
       &END MASS
       &THERMOSTAT
         TYPE CSVR
         &CSVR
           TIMECON  9.6755373060191388E+001
           &THERMOSTAT_ENERGY
               1.4604036448673597E-003
           &END THERMOSTAT_ENERGY
           &RNG_INIT
 Wiener process for Thermostat # 1        1 F T F   1.1299789622833911E+00          71917161.0         644478369.0        3323359156.0        1163521121.0        2491746290.0        3248497457.0             12345.0             12345.0             12345.0             12345.0             12345.0             12345.0             12345.0             12345.0             12345.0             12345.0             12345.0             12345.0
           &END RNG_INIT
         &END CSVR
       &END THERMOSTAT
     &END BAROSTAT
     &THERMOSTAT
       TYPE CSVR
       &CSVR
         TIMECON  9.9999999999999989E+002
         &THERMOSTAT_ENERGY
            -8.0479735296688792E-001
         &END THERMOSTAT_ENERGY
         &RNG_INIT
 Wiener process for Thermostat # 1        1 F T F   1.4413999531237667E+00         715802610.0        3353143026.0        2212099343.0        4051752817.0           9717914.0        1697989946.0             12345.0             12345.0             12345.0             12345.0             12345.0             12345.0             12345.0             12345.0             12345.0             12345.0             12345.0             12345.0
         &END RNG_INIT
       &END CSVR
     &END THERMOSTAT
     &AVERAGES T
       &RESTART_AVERAGES
         ITIMES_START 1
         AVECPU  2.3231360161844169E+001
         AVEHUGONIOT  0.0000000000000000E+000
         AVETEMP_BARO  3.0613789710348595E+002
         AVEPOT -2.4597221319108112E+003
         AVEKIN  1.2215818931610714E+000
         AVETEMP  6.5770603955251283E+002
         AVEKIN_QM  0.0000000000000000E+000
         AVETEMP_QM  0.0000000000000000E+000
         AVEVOL  3.8687352773364379E+004
         AVECELL_A  3.3745012515671689E+001
         AVECELL_B  3.3745012515671689E+001
         AVECELL_C  3.3745012515671689E+001
         AVEALPHA  9.0000000000000000E+001
         AVEBETA  9.0000000000000000E+001
         AVEGAMMA  9.0000000000000000E+001
         AVE_ECONS -1.3446679253290418E+002
         AVE_PRESS  3.9831462578892257E+002
         AVE_PXX  3.7637629306266518E+002
       &END RESTART_AVERAGES
     &END AVERAGES
   &END MD
   &PRINT
     &TRAJECTORY SILENT
       FILENAME =brines-1.xyz
       &EACH
         MD 1
       &END EACH
     &END TRAJECTORY
     &CELL SILENT
       FILENAME =brines-1.cell_xyz
       &EACH
         MD 1
       &END EACH
     &END CELL
     &VELOCITIES SILENT
       FILENAME =brines-1.vel
       &EACH
         MD 1
       &END EACH
     &END VELOCITIES
     &FORCES SILENT
       FILENAME =brines-1.force
       &EACH
         MD 1
       &END EACH
     &END FORCES
     &STRESS SILENT
       FILENAME =brines-1.stress
       &EACH
         MD 1
       &END EACH
     &END STRESS
     &RESTART SILENT
       FILENAME =brines-1.restart
       &EACH
         MD 1
       &END EACH
     &END RESTART
     &RESTART_HISTORY SILENT
       &EACH
         MD 50
       &END EACH
     &END RESTART_HISTORY
   &END PRINT
 &END MOTION
 &FORCE_EVAL
   METHOD QS
   STRESS_TENSOR ANALYTICAL
   &DFT
     BASIS_SET_FILE_NAME /ccc/work/cont003/gen2309/sicilana/DATA_CP2K/GTH_BASIS_SETS
     POTENTIAL_FILE_NAME /ccc/work/cont003/gen2309/sicilana/DATA_CP2K/GTH_POTENTIALS
     &SCF
       MAX_SCF 50
       EPS_SCF  9.9999999999999995E-008
       &OT T
         MINIMIZER DIIS
         PRECONDITIONER FULL_SINGLE_INVERSE
       &END OT
       &OUTER_SCF T
         EPS_SCF  9.9999999999999995E-008
         MAX_SCF 50
       &END OUTER_SCF
     &END SCF
     &QS
       EPS_DEFAULT  1.0000000000000000E-014
       EPSFIT  9.9999999999999995E-007
       EPSISO  9.9999999999999998E-013
       EPSRHO0  1.0000000000000000E-008
       QUADRATURE GC_LOG
       EXTRAPOLATION ASPC
       METHOD GAPW
     &END QS
     &MGRID
       NGRIDS 4
       CUTOFF  6.0000000000000000E+002
       REL_CUTOFF  6.0000000000000000E+001
     &END MGRID
     &XC
       DENSITY_CUTOFF  1.0000000000000000E-010
       GRADIENT_CUTOFF  1.0000000000000000E-010
       TAU_CUTOFF  1.0000000000000000E-010
       &XC_FUNCTIONAL NO_SHORTCUT
         &PBE T
           PARAMETRIZATION REVPBE
         &END PBE
       &END XC_FUNCTIONAL
       &VDW_POTENTIAL
         POTENTIAL_TYPE PAIR_POTENTIAL
         &PAIR_POTENTIAL
           R_CUTOFF  1.2000000000000000E+001
           TYPE DFTD3
           PARAMETER_FILE_NAME /ccc/work/cont003/gen2309/sicilana/DATA_CP2K/dftd3.dat
           REFERENCE_FUNCTIONAL "PBE"
           CALCULATE_C9_TERM T
           REFERENCE_C9_TERM T
           VERBOSE_OUTPUT T
           D3_EXCLUDE_KIND 3
         &END PAIR_POTENTIAL
       &END VDW_POTENTIAL
     &END XC
     &REAL_TIME_PROPAGATION
       INITIAL_WFN RT_RESTART
     &END REAL_TIME_PROPAGATION
     &PRINT
       &MO_CUBES SILENT
         WRITE_CUBE F
         NLUMO 10
         NHOMO 2
         &EACH
           MD 200
         &END EACH
       &END MO_CUBES
       &MOMENTS ON
         ADD_LAST NUMERIC
         COMMON_ITERATION_LEVELS 20000
         FILENAME =brines-1.dipoles
         REFERENCE COM
         &EACH
           MD 1
         &END EACH
       &END MOMENTS
     &END PRINT
   &END DFT
   &SUBSYS
     &CELL
       A  1.8678122009585440E+001  0.0000000000000000E+000  0.0000000000000000E+000
       B  0.0000000000000000E+000  1.8678122009585440E+001  0.0000000000000000E+000
       C  0.0000000000000000E+000  0.0000000000000000E+000  1.8678122009585440E+001
       MULTIPLE_UNIT_CELL 1 1 1
     &END CELL
     &COORD
       H  1.2019693174089040E+001  2.2143788918981098E+001  2.1015222705773837E+000
       H  1.2994231713274099E+001  2.0964744220959854E+001  2.2896357269740868E+000
       O  1.2515477305943456E+001  2.1620092435505608E+001  2.8348634578883329E+000
       H  7.7296693553633959E+000 -8.8646461646194563E+000  2.2993407140054600E+000
       H  6.4661831813131601E+000 -9.3185866394107464E+000  3.1158425234670792E+000
       O  7.1016666668489892E+000 -8.5924886020174220E+000  2.9493016320084644E+000
       H -9.3544264983305645E+000  4.6798200786359956E+001  4.6149563374287411E+001
       H -9.3891190679727412E+000  4.5405688521475177E+001  4.6280892221192254E+001
       O -9.7108852094196720E+000  4.6146515300715343E+001  4.6795812243051749E+001
       H  9.0952583106897666E+000  2.4462153672554788E+001  2.2824878494282100E+001
       H  8.8108510125994322E+000  2.3653545150271729E+001  2.4135299878939872E+001
       O  8.3395378550857462E+000  2.4134849829888218E+001  2.3367604510390095E+001
       H -1.2547079874497653E+001  4.6129971479015426E+000  8.5043418714140522E+000
       H -1.2579753408967775E+001  5.8583786581349422E+000  9.5959175169113600E+000
       O -1.2711439249157880E+001  4.8888313458045518E+000  9.4367123308386791E+000
       H  3.3729642149761105E+001  2.7385213778139207E+001 -5.6318851387047832E+000
       H  3.3092021527378854E+001  2.6534379397742281E+001 -6.7499177257544538E+000
       O  3.3864689376375203E+001  2.7117660772446186E+001 -6.6219219455579390E+000
       H -6.5444223964505150E+000  3.7072643478124472E+000  9.5456401141786138E+000
       H -5.3224688812171239E+000  4.4653054618413499E+000  9.2864747423750451E+000
       O -5.6057670352608575E+000  3.6739500361040527E+000  9.7365069979417846E+000
       H  2.4794776029061538E+001 -1.6508922148274332E+000 -4.3262128893587164E+000
       H  2.5596151271871292E+001 -3.7652646744792573E-001 -4.4348457506725563E+000
       O  2.4664688423959571E+001 -6.9541553419054924E-001 -4.3924592120036126E+000
       H  1.9859180644865223E+001  1.2727338427131262E+001  1.5046310727079856E+001
       H  2.1155840942007906E+001  1.2362930896488610E+001  1.4143877044790406E+001
       O  2.0456830545283548E+001  1.3015217791182064E+001  1.4255608800181051E+001
       H  2.3750775777151450E+001 -3.7561967176944644E-001  2.3522630314985630E+001
       H  2.5300871312602712E+001 -7.9678175292438780E-001  2.3770628414790139E+001
       O  2.4375552383601491E+001 -1.0839583170866158E+000  2.3453984219405527E+001
       H  3.4902154042050526E+000  1.2212406473500890E+000 -1.0782557626696805E+001
       H  2.2039882485362883E+000  8.1514880113366150E-001 -1.1720882714009049E+001
       O  3.2487677669299306E+000  8.9068080161213969E-001 -1.1673328685219433E+001
       H  1.3403715407716833E+001  5.6080332565355535E+000  2.5131476999769127E+001
       H  1.2178624283053963E+001  4.9469981903458438E+000  2.4282751049501712E+001
       O  1.2422725926431657E+001  5.5507971544011410E+000  2.5055656639669941E+001
       H  1.7241203537916416E+001  1.3998471935088316E+001  2.8265632702682395E+000
       H  1.6490994825990722E+001  1.4074360386687259E+001  4.2449050860747297E+000
       O  1.6837699079090672E+001  1.3429219679408451E+001  3.5932501841590261E+000
       H  7.1437853730744445E+000 -1.0373422401368090E+001 -5.3648862313139178E-001
       H  7.5425926542596144E+000 -1.0833721502982634E+001 -2.0503797057414417E+000
       O  7.8731464937617845E+000 -1.0539207199068732E+001 -1.1245899556341727E+000
       H  3.0315368593639192E+001  3.7116747612003309E+001 -1.2421985607005810E+000
       H  2.9264724740890561E+001  3.7512439497073245E+001 -6.5141336502378680E-004
       O  3.0056713620394383E+001  3.7001927185106332E+001 -3.1075157685064875E-001
       H  1.5513816356183247E+001  2.6355202326114906E+000 -1.0872276740847790E+001
       H  1.4112109264487385E+001  2.1619267964505338E+000 -1.0765589401470056E+001
       O  1.4985259491357876E+001  1.7422428524205567E+000 -1.0858078537200294E+001
       H  1.8772987021117427E+001  9.3375007861458581E-001  5.8110315278006546E+000
       H  1.9347667848437379E+001 -4.8745164818185155E-001  5.7377523181208598E+000
       O  1.9643229780104164E+001  4.4994969065823498E-001  5.7671554629172022E+000
       H  8.6834383679230456E+000  4.2071073649711588E-001  1.6078758956488123E+001
       H  8.4427782142632548E+000  1.8520859560036600E+000  1.6030725823813597E+001
       O  7.9580693052406115E+000  1.0371061660286200E+000  1.6233553242057496E+001
       H  5.7531923604121591E+000  1.6832815250197370E+001  7.0182021199142541E+000
       H  5.9185423060732063E+000  1.5814402092093617E+001  8.2025917694772907E+000
       O  5.5595761521728102E+000  1.6743208949661827E+001  8.0029961480744838E+000
       H  1.8676365531096270E+001  2.6450453519528878E+001  7.7190157385348201E-001
       H  1.9195409777294618E+001  2.6770771533235951E+001  2.4076175371404451E+000
       O  1.8592465128063004E+001  2.6956785321198279E+001  1.6617210614399633E+000
       H  1.5972854710586375E+001  1.2789360400144650E+001  1.9956923915241152E+001
       H  1.5319010470895464E+001  1.2764591513803932E+001  1.8544897914217753E+001
       O  1.5388199905250108E+001  1.2289256633663348E+001  1.9405605249862795E+001
       H  1.0812511759261410E+001 -1.1493994337282553E+001  1.6487369398029024E+001
       H  9.6601206045937698E+000 -1.0597732411046968E+001  1.5781325528111156E+001
       O  1.0583554028977691E+001 -1.0823634361408155E+001  1.5796141364484161E+001
       H  2.4686062309518043E+001  1.4978149743319324E+001  2.1864207082283460E+001
       H  2.4855813502353577E+001  1.6025034839128736E+001  2.3022052594178859E+001
       O  2.5095849469069591E+001  1.5091008252945445E+001  2.2692587689703444E+001
       H -1.6890729539272709E+001  7.3146650335794909E+000  1.4131904121438961E+001
       H -1.6403311403673435E+001  5.9375014681819644E+000  1.4758164657993365E+001
       O -1.6231174194793514E+001  6.8860288523971560E+000  1.4750204131465759E+001
       H -7.3179213523630449E-001  5.1200746450376462E+000  6.4694397663406074E+000
       H  4.0050122312000991E-001  6.1029878639933761E+000  6.4976217057840744E+000
       O -1.2628452436417786E-001  5.6350359977931603E+000  5.8342239766610975E+000
       H -6.7939041459360929E+000 -1.6924235077411939E+001  1.8248825026474865E+001
       H -5.5720995883883226E+000 -1.6608019125367687E+001  1.7498837732224374E+001
       O -6.4922451800421435E+000 -1.6311454819437149E+001  1.7525714319855158E+001
       H  2.8157339307971796E+001  9.2394099333821220E+000  4.3009945458012849E-001
       H  2.8649745512115867E+001  9.1159982065976255E+000  2.1176657420669462E+000
       O  2.8197911988872526E+001  9.7273993740245039E+000  1.3368019888153799E+000
       H  1.1974694918972052E+001 -1.1994579980406623E+000  2.6095646479163833E+001
       H  1.0853674627407816E+001 -9.7749399935703907E-001  2.5036122260872240E+001
       O  1.1323615309148114E+001 -1.6750139447693129E+000  2.5409996719689218E+001
       H -2.7935039063590974E+000  6.1486480663244096E+000 -4.1904582630409779E+000
       H -4.4246560338330276E+000  6.4529172426790709E+000 -3.9162213443150486E+000
       O -3.4847970076388353E+000  6.8125248030431500E+000 -3.8409782067315064E+000
       H  5.8830486227318097E+000  4.8166917087856671E+000  2.0919469766740759E+000
       H  6.7586775537356356E+000  5.9244543185475242E+000  2.4498358559106768E+000
       O  5.9359796704983605E+000  5.8356448517169452E+000  1.9398652301836534E+000
       H  1.0830437009422564E+000 -1.3953663713847295E+000  3.2613810081497210E+000
       H -4.1939072940976968E-001 -5.7761936313223294E-001  3.1049391241336775E+000
       O  3.7898579495565250E-002 -1.4469228727448973E+000  3.2727643593501412E+000
       H -1.1541563885063553E+000  2.3712999010500980E+001 -5.2411447350985227E+000
       H -1.9650247500509552E+000  2.2623532580657358E+001 -4.3066600012715188E+000
       O -1.9286613055868778E+000  2.3629845745905318E+001 -4.6136495968676385E+000
       H  2.3722707253201925E+001  2.2265319891713649E+001  1.2017336210467617E+001
       H  2.3546501990654406E+001  2.1660465394529815E+001  1.3513393845433669E+001
       O  2.3066784989525349E+001  2.2022914478616734E+001  1.2729564492211574E+001
       H  2.3474656562498275E+000 -2.1684930475172962E+001 -7.4002869104505917E+000
       H  3.0181697453433620E+000 -2.0339816164697819E+001 -7.0611685658823182E+000
       O  2.9535256674240613E+000 -2.0967066486344837E+001 -7.7382343513285887E+000
       H  6.8052925471496435E+000  2.4583016802606932E+000  1.2502409376574459E+001
       H  6.8219681033453314E+000  2.8051514035487690E+000  1.4078532278538328E+001
       O  6.7927597452404509E+000  2.0689822629929675E+000  1.3389912273564693E+001
       H  1.4452752730118631E+001  1.9271305719588081E+001 -1.7486370664022754E+001
       H  1.5840935849123708E+001  1.9977454154940840E+001 -1.7077324815191442E+001
       O  1.4853189403021183E+001  1.9904728391304715E+001 -1.6884781299633087E+001
       H  1.4547489571292084E+001 -1.0323666738109081E+001 -2.0543922548934297E+001
       H  1.3496967328095648E+001 -9.3804366369407646E+000 -2.0876008750583974E+001
       O  1.3759934551771993E+001 -9.9532974046789988E+000 -2.0087896202211081E+001
       H  1.4267382858175262E+001 -1.0485718426703310E+000  2.7846925573401073E+001
       H  1.3153868140702572E+001 -1.5791825988194490E+000  2.8765303081278251E+001
       O  1.3596404126487593E+001 -1.7401620536330575E+000  2.7840680717090788E+001
       H  2.1282507131278901E+001  6.5351229707309217E+000  1.8933946322693561E+001
       H  2.1675564004825571E+001  5.1892654553897311E+000  1.9588032102517850E+001
       O  2.1507771169395195E+001  6.0794478140356931E+000  1.9741119641909084E+001
       H  1.6346481129392085E+001  1.9598964150006928E+001  1.1604751456991465E+001
       H  1.6105229902191095E+001  2.0331388383606953E+001  1.0269401436258409E+001
       O  1.6716631856750006E+001  1.9676546127030694E+001  1.0729521863284841E+001
       H  2.3580837907595185E+000  8.1817806568442530E-001  3.4946416075445930E+000
       H  2.7594495758491377E+000  1.4026770334435659E+000  2.1299207162186939E+000
       O  3.1832850666097361E+000  9.3254588791789805E-001  2.9124285320352858E+000
       H  1.9859820082676418E+001  2.2700700611646244E+001 -6.8683941317040134E+000
       H  2.0362965513238855E+001  2.2560126789841295E+001 -5.4208953872170378E+000
       O  1.9863738308942576E+001  2.3222222456963472E+001 -5.9968573095529196E+000
       H  2.5923684401652860E+000  3.3036615997989472E+001  1.5260924458367409E+001
       H  3.3886503761747298E+000  3.3449704471141530E+001  1.6405895005330017E+001
       O  2.6901111285607056E+000  3.3768654597461818E+001  1.5895728546539226E+001
       H  1.2652940341078205E+001  2.9922014094491041E+000  1.1842951142663695E+001
       H  1.3766092782538680E+001  3.2983900712794805E+000  1.2793523991702925E+001
       O  1.2884530935509108E+001  2.8938877351028638E+000  1.2846697963483939E+001
       H  1.3964544964509715E+001  1.4399415380189080E+001 -1.6000209677898592E+001
       H  1.4101014983531464E+001  1.4925008625225885E+001 -1.7425547255272068E+001
       O  1.4454720128726514E+001  1.5064973682500421E+001 -1.6567598517358988E+001
       H -9.5870875923430301E+000  1.5073970705247222E+001  8.9884135102528155E+000
       H -8.6726390064596703E+000  1.5740731587420596E+001  7.7757650906631222E+000
       O -9.1712762491804867E+000  1.4977858415663226E+001  8.0903052228922245E+000
       H  9.0033887838451570E+000  3.8043106329488680E+001  1.3516072202100096E+001
       H  8.2287887139876386E+000  3.7434176108145891E+001  1.2386055777306044E+001
       O  8.9062918368107375E+000  3.7174719966517145E+001  1.2999396354595083E+001
       H  5.1274653718514944E+000  6.0564592767874741E+000  1.8279229735195827E+001
       H  5.1066331865825214E+000  6.2789739163985416E+000  1.6731745920157781E+001
       O  4.7961047113486304E+000  6.7333350415433735E+000  1.7570384964807168E+001
       H -2.8434484114131489E+000  1.9964567274799098E+001 -4.0225657847162721E-001
       H -2.2455296601524086E+000  1.9089146786141264E+001 -1.4161914684438930E+000
       O -2.0504998060861053E+000  1.9450570059276870E+001 -4.9572391907577029E-001
       H -6.4296168308711978E+000  1.6728451871638722E+001  2.0608954960023450E+001
       H -5.5806343329143138E+000  1.7262357621986826E+001  2.1620050526818773E+001
       O -6.5276315750558496E+000  1.7101448668581750E+001  2.1448062304544894E+001
       H  1.7286790582468448E+001 -1.3870769440805184E+000  5.8788204843465355E+000
       H  1.7743118746016478E+001 -2.1661890844048215E+000  7.0773731762164660E+000
       O  1.7289973100125707E+001 -2.3168549969358057E+000  6.2566837533187272E+000
       H -3.1483581813501761E+001  1.0807477579950702E+000  2.0624963805478188E+001
       H -3.0093893262090916E+001  1.4410993419845977E+000  2.1342515105033236E+001
       O -3.0835980068414493E+001  1.8499198436388067E+000  2.0873536737491424E+001
       H  9.3254542408631167E+000  8.8017303344754456E+000  1.1608965030685001E+001
       H  1.0397380210641140E+001  9.1526560538023514E+000  1.2845073468630016E+001
       O  9.4382460180788019E+000  8.9489585252634640E+000  1.2578177847810904E+001
       H  1.6443299173510745E+001 -1.4785480706729878E+001  2.1861343086150498E+001
       H  1.5226220122074185E+001 -1.5168649561121219E+001  2.2691171575830147E+001
       O  1.6150947977438868E+001 -1.5318789434834555E+001  2.2594002009017828E+001
       H  8.2150656021999868E-001  1.4497155084672000E+001 -5.4324982898686374E+000
       H  3.3815204033931329E-001  1.6032791730602458E+001 -5.6480731278810286E+000
       O  5.7061180835206859E-001  1.5185836904243455E+001 -6.0991330983627412E+000
       H  1.9273425167122895E+001  8.7124042560004931E+000  1.6552864833622049E+001
       H  1.9868167379181251E+001  7.4393383537020199E+000  1.6245944291774158E+001
       O  1.9275321977692638E+001  7.8564028684644924E+000  1.6944838765654065E+001
       H  3.1425776230881737E+000  1.0386508182377174E+001  2.6549919499524474E+001
       H  3.2388949912999370E+000  9.2285861667762745E+000  2.5572011210745803E+001
       O  2.8766826018259044E+000  1.0133728739423820E+001  2.5667996834688243E+001
       H  3.6331586973752423E+000 -7.9169073053526526E+000 -1.6636547010939671E+000
       H  2.4603073967574347E+000 -7.8730939999004441E+000 -6.4309571874740290E-001
       O  2.7931295624018251E+000 -7.4480389861155585E+000 -1.4692542435361848E+000
       H  5.6340559154059138E+000  8.7058552702833101E+000  1.5570929271839011E+001
       H  4.5601037266363873E+000  7.8788276323966642E+000  1.5607818283445896E+001
       O  4.6407219147694594E+000  8.7823606731707926E+000  1.5730608892414514E+001
       H  5.9784391600503337E+000  2.5027210226609590E+001  3.3011976021657652E+001
       H  5.2269782541646128E+000  2.3582937415780528E+001  3.2975786263893298E+001
       O  5.9837661080158355E+000  2.4071753968852395E+001  3.3389553422191540E+001
       H  8.5865405277417182E+000  3.4412743181349953E+001 -1.3985036769590047E+000
       H  8.3554897053801955E+000  3.3288595702761803E+001 -3.2266022517472243E-001
       O  9.0582946031547653E+000  3.3804716290637081E+001 -7.9407720718213060E-001
       H  4.5449829461395214E-001  1.0353746846849310E+001  1.1677524964843835E+001
       H  1.0139289873556947E+000  1.0744271714331465E+001  1.0263289835938828E+001
       O  2.0425462727393215E-001  1.0692882135511759E+001  1.0843853651155658E+001
       H  1.3869779225575755E+001  1.3842526452198605E+001 -2.0007052376359859E+001
       H  1.4931861362456887E+001  1.4770229622443813E+001 -2.0901868759128266E+001
       O  1.4875498851237234E+001  1.4036821638863154E+001 -2.0149390788379240E+001
       H  1.3371736238163672E+001 -2.0165685236330151E+000  1.5527013346985740E+001
       H  1.3817128654006156E+001 -2.4990760548959026E+000  1.7085723140515121E+001
       O  1.3167651550147371E+001 -1.9212048565673614E+000  1.6513423710019460E+001
       H  1.6470010976431901E+001  1.0626606467529102E+001  2.0193194222780235E+001
       H  1.6703667001045201E+001  9.0279483531123663E+000  2.0657720859285931E+001
       O  1.6011547999306888E+001  9.7160904258559206E+000  2.0320216250277689E+001
       H  2.8137913601150437E+001 -1.4821258339548367E+000  1.9473847549526702E+001
       H  2.8673091231178891E+001 -1.4363884440293384E+000  2.0949050289523100E+001
       O  2.8182831824975146E+001 -9.8288411398430175E-001  2.0300537838547395E+001
       H  2.0490714062119245E+001  1.4793739116222824E+001  2.1227983611098132E+001
       H  1.9678560879944420E+001  1.5941740215903817E+001  2.0474587300121144E+001
       O  2.0094621000785001E+001  1.5054633576870694E+001  2.0363835982154431E+001
       H  1.1103873951646969E+001  6.0412119890011136E+000 -4.9365561447979003E+000
       H  1.1678911545553355E+001  4.7492102063678692E+000 -4.4616129104131863E+000
       O  1.1692700630458679E+001  5.3296823082496720E+000 -5.2255688890662739E+000
       H -2.3555074167469150E+000  1.2777339758952502E+001 -4.8243695605163888E+000
       H -3.1431109489666178E+000  1.4061194420624405E+001 -4.5500414196185019E+000
       O -3.2445603106229499E+000  1.3135614406489866E+001 -4.8598268823698731E+000
       H  7.5905330649405158E+000  8.4384233695033029E+000  1.3714362079196871E+001
       H  6.4023523217645053E+000  9.4199404185963242E+000  1.4088600395270893E+001
       O  6.6952738073506923E+000  8.5094781279873306E+000  1.4081988616120544E+001
       H -1.7272803254646604E+001 -4.6994684866201242E+000  5.4164566010008288E+000
       H -1.7441481727164149E+001 -3.4297266741315253E+000  4.7814557388530297E+000
       O -1.6807708007905411E+001 -4.0806460248400889E+000  4.8574854357575701E+000
       H -6.0976157707626721E-001  7.9575267157815439E+000 -4.6214452017052192E+000
       H -9.2702064645106008E-001  8.1313267055408502E+000 -6.2753561198597554E+000
       O -4.2615291411667205E-001  8.4503666566235083E+000 -5.4677976829353607E+000
       H  1.3571978818830168E+001  7.5124326216630397E+000  7.6346473044014616E+000
       H  1.2463431755154240E+001  8.3865707954825179E+000  7.1416503197947749E+000
       O  1.3272734820047944E+001  8.4254334526690915E+000  7.6702111030628775E+000
       H  2.2639663724008114E+000  1.1262462400228568E+001  2.8938813206824316E+000
       H  1.9406170043540105E+000  1.0149739684984702E+001  4.1257740292363980E+000
       O  2.4783056733273821E+000  1.0868979960937082E+001  3.8332257328614152E+000
       H  1.0327373958729101E+001  1.7029054823794830E+001 -6.9355175479540190E+000
       H  1.0800438011606706E+001  1.6245341524528722E+001 -8.2288644521927790E+000
       O  1.0940517709255595E+001  1.6311487071516140E+001 -7.1892136532590172E+000
       H  1.5621489972530453E+001  1.6840929988416974E+001  1.4748990914870204E+001
       H  1.7116588981923933E+001  1.7105088858450138E+001  1.5111344751386421E+001
       O  1.6168925223154897E+001  1.6969574022758863E+001  1.5468166053975571E+001
       H  5.4881516883275294E+000 -5.7417536767632873E+000 -1.2266183999767822E+001
       H  4.9224458173667252E+000 -6.2008833037780695E+000 -1.0885414480363059E+001
       O  5.4693513412047912E+000 -5.4558470712368159E+000 -1.1345675439659765E+001
       H  4.6580551688425400E+000  1.1926768920816095E+001  4.6576369897078562E+000
       H  6.1243913583829119E+000  1.2248089160312917E+001  4.2793732330162220E+000
       O  5.2469443615049594E+000  1.2612630630699156E+001  4.2736722342085205E+000
       H  1.2147455071354743E+001  7.0519357449686932E+000  1.0023078717561274E+001
       H  1.2434129878934760E+001  6.2511747993438176E+000  1.1252575284438166E+001
       O  1.2004576203501742E+001  7.0305027488400293E+000  1.0963576046953001E+001
       H  2.9968374540987370E+000  1.9199440148399696E+000 -6.9702357252686094E+000
       H  1.9114453175220589E+000  1.0873473525420168E+000 -7.4984892888962396E+000
       O  2.2706012958246604E+000  1.2919199488133473E+000 -6.6312995229229275E+000
       H  3.5485728311100524E+000  1.4378446908978162E+001  7.4807875629404910E+000
       H  3.2331747859292483E+000  1.3347998816603361E+001  8.5509319574235949E+000
       O  2.8691287984211149E+000  1.4166476393281640E+001  8.1279952112795844E+000
       H -7.1557164026853171E+000 -5.6504443969112765E+000  1.7197292011958734E+001
       H -7.3501026452067713E+000 -4.2329399329918420E+000  1.7860961320829382E+001
       O -6.6512476825022286E+000 -4.8869038249070549E+000  1.7521279875729192E+001
       H  1.7829224632031522E+001  2.9433459279207344E+000  1.5442136504245649E+001
       H  1.7748909112418250E+001  1.8602323027608556E+000  1.4333277407645921E+001
       O  1.7154768267327078E+001  2.4171059887116870E+000  1.4911589716454188E+001
       H  1.4717552655457002E+001 -3.5550518641099607E+000  2.8512588439820302E+001
       H  1.4913966156424333E+001 -5.1691294226337803E+000  2.8662668978333340E+001
       O  1.5212550255211989E+001 -4.3151102267867962E+000  2.9025709882064927E+001
       H  1.7561513621335131E+001  6.2126769972410922E-001  1.9908519097324980E+001
       H  1.7948066866263467E+001  1.8363722785914403E+000  2.1089443477501508E+001
       O  1.7456206744060516E+001  9.6935438469942359E-001  2.0819873321983792E+001
       H  1.1424798173734105E+001  1.7712837280951665E+000 -2.8502454275790492E+000
       H  1.1341295697124529E+001  2.5943985283893607E+000 -4.2391025130795006E+000
       O  1.0789255192880933E+001  2.0044417021982071E+000 -3.6579458778583347E+000
       H  9.7424147542774726E+000 -5.2791261537894565E+000 -3.7481991095084486E+000
       H  1.1010529359026430E+001 -5.5899679923792007E+000 -4.6533015307483305E+000
       O  1.0684840129959513E+001 -5.6182383444410524E+000 -3.7626341166044841E+000
       H  3.1732048871586088E+001  1.6161784123152490E+001  1.2152592586383689E+001
       H  3.2836195039108851E+001  1.5075098598359617E+001  1.2156793573770834E+001
       O  3.2426345825616032E+001  1.5731232536567401E+001  1.2735447993688656E+001
       H  1.9224406569353668E+001  8.5447688332772636E+000  9.3117007883042575E+000
       H  2.0214486146170835E+001  8.7452407242648125E+000  8.1787338711168740E+000
       O  1.9747890457920075E+001  8.0612729389459812E+000  8.6323134892222182E+000
       H  8.4684452366090959E+000 -6.0501659160709815E+000  7.6660890157134132E+000
       H  7.5134588916658842E+000 -6.6126879311157403E+000  8.5922361354247183E+000
       O  8.2366956297525729E+000 -6.9250252865234101E+000  8.0050526816686407E+000
       H -5.4536522278871589E+000  7.4302606342249300E+000  4.5214396132711148E+000
       H -5.2818096633681622E+000  8.8592050033845151E+000  4.0276521952952713E+000
       O -5.5463738340125737E+000  7.9723384089401472E+000  3.7254411486211603E+000
       H  1.5675881463679568E+001 -1.2141063228265693E+001 -2.1182528930189393E+000
       H  1.4658371193926628E+001 -1.3189310388178939E+001 -1.4462933747052196E+000