 # Version information for this restart file 
 # current date 2025-03-31 17:20:59.993
 # current working dir /ccc/scratch/cont003/gen2309/sicilana/NPT/128_H2O_4_NaCl_10_wt_673K_1000bar/BATCH_11_MD_T_673_P_1000_steps_1000_dt_0.5_NH2O_128_NaCl_4_abc_17.19_17.19_17.19_wt_9.20
 # Program compiled at                                       2024-10-31 15:04:21
 # Program compiled on                                                 topaze131
 # Program compiled for                                                   x86_64
 # Source code revision number                                                  
 &GLOBAL
   PRINT_LEVEL LOW
   PROJECT_NAME "brines"
   RUN_TYPE MD
   FLUSH_SHOULD_FLUSH T
 &END GLOBAL
 &MOTION
   &MD
     ENSEMBLE NPT_I
     STEPS 1000
     TIMESTEP  4.9999999999999994E-001
     STEP_START_VAL 26250
     TIME_START_VAL  1.3125000000006690E+004
     ECONS_START_VAL -2.4590398713531335E+003
     TEMPERATURE  6.7300000000000011E+002
     &BAROSTAT
       PRESSURE  1.0000000000000000E+003
       TIMECON  9.9999999999999989E+002
       &VELOCITY
           2.5009326167147834E-007
       &END VELOCITY
       &MASS
           4.2836593343398705E+007
       &END MASS
       &THERMOSTAT
         TYPE CSVR
         &CSVR
           TIMECON  9.6755373060191388E+001
           &THERMOSTAT_ENERGY
               6.5464878036425311E-004
           &END THERMOSTAT_ENERGY
           &RNG_INIT
 Wiener process for Thermostat # 1        1 F T F  -1.3883255692288432E+00        4265724049.0        1834641524.0         362401709.0        3165217202.0        1010376925.0        2449056720.0             12345.0             12345.0             12345.0             12345.0             12345.0             12345.0             12345.0             12345.0             12345.0             12345.0             12345.0             12345.0
           &END RNG_INIT
         &END CSVR
       &END THERMOSTAT
     &END BAROSTAT
     &THERMOSTAT
       TYPE CSVR
       &CSVR
         TIMECON  9.9999999999999989E+002
         &THERMOSTAT_ENERGY
            -7.9272805607478380E-001
         &END THERMOSTAT_ENERGY
         &RNG_INIT
 Wiener process for Thermostat # 1        1 F T F   4.8463215239460677E-01        1501943945.0        3900762161.0        2461225277.0         445344303.0         457057509.0        1861443282.0             12345.0             12345.0             12345.0             12345.0             12345.0             12345.0             12345.0             12345.0             12345.0             12345.0             12345.0             12345.0
         &END RNG_INIT
       &END CSVR
     &END THERMOSTAT
     &AVERAGES T
       &RESTART_AVERAGES
         ITIMES_START 1
         AVECPU  2.3042201667769199E+001
         AVEHUGONIOT  0.0000000000000000E+000
         AVETEMP_BARO  3.0725373065603753E+002
         AVEPOT -2.4597168476269103E+003
         AVEKIN  1.2224100126443671E+000
         AVETEMP  6.5815190338586092E+002
         AVEKIN_QM  0.0000000000000000E+000
         AVETEMP_QM  0.0000000000000000E+000
         AVEVOL  3.8588732890858824E+004
         AVECELL_A  3.3716312165702753E+001
         AVECELL_B  3.3716312165702753E+001
         AVECELL_C  3.3716312165702753E+001
         AVEALPHA  9.0000000000000000E+001
         AVEBETA  9.0000000000000000E+001
         AVEGAMMA  9.0000000000000000E+001
         AVE_ECONS -1.3048542876997396E+002
         AVE_PRESS  3.8922803056152060E+002
         AVE_PXX  3.6416684431074259E+002
       &END RESTART_AVERAGES
     &END AVERAGES
   &END MD
   &PRINT
     &TRAJECTORY SILENT
       FILENAME =brines-1.xyz
       &EACH
         MD 1
       &END EACH
     &END TRAJECTORY
     &CELL SILENT
       FILENAME =brines-1.cell_xyz
       &EACH
         MD 1
       &END EACH
     &END CELL
     &VELOCITIES SILENT
       FILENAME =brines-1.vel
       &EACH
         MD 1
       &END EACH
     &END VELOCITIES
     &FORCES SILENT
       FILENAME =brines-1.force
       &EACH
         MD 1
       &END EACH
     &END FORCES
     &STRESS SILENT
       FILENAME =brines-1.stress
       &EACH
         MD 1
       &END EACH
     &END STRESS
     &RESTART SILENT
       FILENAME =brines-1.restart
       &EACH
         MD 1
       &END EACH
     &END RESTART
     &RESTART_HISTORY SILENT
       &EACH
         MD 50
       &END EACH
     &END RESTART_HISTORY
   &END PRINT
 &END MOTION
 &FORCE_EVAL
   METHOD QS
   STRESS_TENSOR ANALYTICAL
   &DFT
     BASIS_SET_FILE_NAME /ccc/work/cont003/gen2309/sicilana/DATA_CP2K/GTH_BASIS_SETS
     POTENTIAL_FILE_NAME /ccc/work/cont003/gen2309/sicilana/DATA_CP2K/GTH_POTENTIALS
     &SCF
       MAX_SCF 50
       EPS_SCF  9.9999999999999995E-008
       &OT T
         MINIMIZER DIIS
         PRECONDITIONER FULL_SINGLE_INVERSE
       &END OT
       &OUTER_SCF T
         EPS_SCF  9.9999999999999995E-008
         MAX_SCF 50
       &END OUTER_SCF
     &END SCF
     &QS
       EPS_DEFAULT  1.0000000000000000E-014
       EPSFIT  9.9999999999999995E-007
       EPSISO  9.9999999999999998E-013
       EPSRHO0  1.0000000000000000E-008
       QUADRATURE GC_LOG
       EXTRAPOLATION ASPC
       METHOD GAPW
     &END QS
     &MGRID
       NGRIDS 4
       CUTOFF  6.0000000000000000E+002
       REL_CUTOFF  6.0000000000000000E+001
     &END MGRID
     &XC
       DENSITY_CUTOFF  1.0000000000000000E-010
       GRADIENT_CUTOFF  1.0000000000000000E-010
       TAU_CUTOFF  1.0000000000000000E-010
       &XC_FUNCTIONAL NO_SHORTCUT
         &PBE T
           PARAMETRIZATION REVPBE
         &END PBE
       &END XC_FUNCTIONAL
       &VDW_POTENTIAL
         POTENTIAL_TYPE PAIR_POTENTIAL
         &PAIR_POTENTIAL
           R_CUTOFF  1.2000000000000000E+001
           TYPE DFTD3
           PARAMETER_FILE_NAME /ccc/work/cont003/gen2309/sicilana/DATA_CP2K/dftd3.dat
           REFERENCE_FUNCTIONAL "PBE"
           CALCULATE_C9_TERM T
           REFERENCE_C9_TERM T
           VERBOSE_OUTPUT T
           D3_EXCLUDE_KIND 3
         &END PAIR_POTENTIAL
       &END VDW_POTENTIAL
     &END XC
     &REAL_TIME_PROPAGATION
       INITIAL_WFN RT_RESTART
     &END REAL_TIME_PROPAGATION
     &PRINT
       &MO_CUBES SILENT
         WRITE_CUBE F
         NLUMO 10
         NHOMO 2
         &EACH
           MD 200
         &END EACH
       &END MO_CUBES
       &MOMENTS ON
         ADD_LAST NUMERIC
         COMMON_ITERATION_LEVELS 20000
         FILENAME =brines-1.dipoles
         REFERENCE COM
         &EACH
           MD 1
         &END EACH
       &END MOMENTS
     &END PRINT
   &END DFT
   &SUBSYS
     &CELL
       A  1.8957066144984047E+001  0.0000000000000000E+000  0.0000000000000000E+000
       B  0.0000000000000000E+000  1.8957066144984047E+001  0.0000000000000000E+000
       C  0.0000000000000000E+000  0.0000000000000000E+000  1.8957066144984047E+001
       MULTIPLE_UNIT_CELL 1 1 1
     &END CELL
     &COORD
       H  1.0789420920901984E+001  2.2752960596497825E+001  1.1870968496208369E+000
       H  9.4248952097406455E+000  2.3540197617101335E+001  1.3484224067873289E+000
       O  1.0006633418274181E+001  2.2899795842918522E+001  1.8215242047259121E+000
       H  8.3608000688965571E+000 -8.5417805675787886E+000  2.0841045520065515E+000
       H  8.1277199969224707E+000 -8.0985815875850573E+000  3.6688701018646523E+000
       O  7.7953138732311125E+000 -8.5676650668602861E+000  2.8298498065405586E+000
       H -1.0813960512728903E+001  4.7333158905030274E+001  4.7497506829940960E+001
       H -9.6650927814945167E+000  4.7596340236896097E+001  4.6598322978586729E+001
       O -1.0025964436838908E+001  4.6858169664809829E+001  4.7093286861733070E+001
       H  9.3449638976084053E+000  2.3134547519738870E+001  2.3880306144303049E+001
       H  8.8151435154361959E+000  2.2918428155414855E+001  2.2546340857260951E+001
       O  8.6312819684280466E+000  2.3428728730549782E+001  2.3360365548262052E+001
       H -1.0542928987202780E+001  5.7160810716847426E+000  9.7119638882495849E+000
       H -9.7535402392423460E+000  7.1327837501705087E+000  1.0133982549784713E+001
       O -9.9184668281265242E+000  6.1910862426683497E+000  1.0384908771883337E+001
       H  3.2998730009150378E+001  2.8411657826260321E+001 -5.5862134903180394E+000
       H  3.2805687100165152E+001  2.7892786558309169E+001 -7.0219835594376141E+000
       O  3.3097640599294273E+001  2.8692660811196419E+001 -6.5277131401483421E+000
       H -5.1673205630073866E+000  5.1503862669875291E+000  8.6082942061745502E+000
       H -4.8316399350558799E+000  4.7273911098962778E+000  1.0065298651781584E+001
       O -5.5963125605346322E+000  4.8724068066118198E+000  9.4262876121995820E+000
       H  2.5208037452507920E+001 -1.6453791253213113E+000 -1.6868905009951072E+000
       H  2.5238049314501133E+001 -2.1429628975523790E-001 -1.0292285682958169E+000
       O  2.4658325321894011E+001 -9.0794337708157336E-001 -1.4746228299242004E+000
       H  2.1675267884359499E+001  1.3351971027399044E+001  1.5069379135881539E+001
       H  2.1599037530208097E+001  1.3803575407320155E+001  1.3567961874866553E+001
       O  2.1493238446708375E+001  1.4108577778363738E+001  1.4431949976820784E+001
       H  2.4115328059809169E+001 -1.1558693746830582E+000  2.2190084522858115E+001
       H  2.3335976470369456E+001 -1.1028674969505352E+000  2.3567691860766786E+001
       O  2.4178223611516977E+001 -9.5355535746960685E-001  2.3214673674751754E+001
       H  5.6211079840440625E+000 -4.6767585991788728E-002 -1.0317894624368666E+001
       H  4.6062550693239128E+000  1.0132229437931977E+000 -9.6430255002493848E+000
       O  4.7120430727982381E+000  4.1940942711120277E-001 -1.0351699007448110E+001
       H  1.2230555203241602E+001  3.1784695421193434E+000  2.2768481388218444E+001
       H  1.1271855851287775E+001  4.2872044323098057E+000  2.2213489079230165E+001
       O  1.1911209527025287E+001  4.0445887553572479E+000  2.2953564733016528E+001
       H  1.6584093617049927E+001  1.3518837410776278E+001  2.9692823299316196E+000
       H  1.7821604592039286E+001  1.4322199491794699E+001  3.4450020756961997E+000
       O  1.7003452159315056E+001  1.3991935647982961E+001  3.7264931688958312E+000
       H  5.8042707584427760E+000 -9.7973817937313115E+000 -1.3794945229311777E+000
       H  6.2358453800189411E+000 -1.1166734749295506E+001 -1.4295081220380033E+000
       O  6.6255177623719543E+000 -1.0278188227100589E+001 -1.4705183077544322E+000
       H  2.9866001567248603E+001  3.6401405824185595E+001  4.9072636175859197E-001
       H  3.0814607962172857E+001  3.6103883858648160E+001 -6.8608656548683966E-001
       O  2.9914886748811703E+001  3.6079018852697267E+001 -4.1333376281150114E-001
       H  1.4992916650288546E+001  1.9523764010620792E+000 -1.0918977495855280E+001
       H  1.4130294871402507E+001  3.1471323772539583E+000 -1.0261928726684513E+001
       O  1.4259602873108282E+001  2.1396664248063404E+000 -1.0169608102261364E+001
       H  2.0038191975459359E+001  2.0311178655091602E-001  6.0326947871918168E+000
       H  2.0130820256551765E+001  1.0075913208246854E+000  7.3331752264289563E+000
       O  2.0111238406305223E+001  1.1187889051738136E+000  6.3943840722984797E+000
       H  9.5010569553393189E+000 -1.4946869653932591E+000  1.7660275151718114E+001
       H  8.7163127455598222E+000 -2.8141373894369875E-001  1.7609604756699234E+001
       O  8.6562380748372867E+000 -1.2027825053770598E+000  1.7299213467724798E+001
       H  4.3685977026803497E+000  1.7973533113399778E+001  7.1089831162289121E+000
       H  5.2160252196321180E+000  1.6745890013666092E+001  6.9914521266624226E+000
       O  4.2914381543157472E+000  1.7048150062544650E+001  6.7570886189623129E+000
       H  2.0752664439688346E+001  2.6124259012005052E+001  1.7294370049766552E+000
       H  2.0583064071735773E+001  2.5807357237919540E+001  3.3001032802484556E+000
       O  2.0181380176199525E+001  2.5779230960288871E+001  2.4554296278040879E+000
       H  1.6647308617320480E+001  1.0966609282606351E+001  2.0351070213406697E+001
       H  1.6269348329470599E+001  1.2365826756443285E+001  1.9918485128390717E+001
       O  1.6891317306960683E+001  1.1859852380532839E+001  2.0581807896007316E+001
       H  1.0720943126357616E+001 -1.1636508623639463E+001  1.7774609305011992E+001
       H  9.1612365020584239E+000 -1.1944696840782544E+001  1.7407516574322365E+001
       O  1.0068804931024680E+001 -1.1716048026850354E+001  1.7078566591264192E+001
       H  2.7153233049561852E+001  1.3960903664524169E+001  2.2983203425794578E+001
       H  2.8461917056301683E+001  1.4349739296678258E+001  2.3661119716989436E+001
       O  2.7558265014594845E+001  1.4661756988726635E+001  2.3453560425042504E+001
       H -1.7959888051375142E+001  8.3140231912267470E+000  1.4978676822981674E+001
       H -1.7243805452767191E+001  6.9584245194967931E+000  1.4694752195993221E+001
       O -1.7090216288471282E+001  7.9181722067724394E+000  1.4595341889560142E+001
       H  1.1343999707030132E+000  5.9803728978417432E+000  7.3479692307970765E+000
       H -6.7547449421722999E-002  5.9939810796212001E+000  6.6256690383196055E+000
       O  8.5056986614881902E-001  5.8171831508805862E+000  6.4643825874197001E+000
       H -6.9876252649036958E+000 -1.4726310604795808E+001  1.7956955498604877E+001
       H -7.0941110605518096E+000 -1.6097791850445322E+001  1.8564487384327478E+001
       O -7.6297422689410519E+000 -1.5281999307435205E+001  1.8430712122453620E+001
       H  2.7070879907045811E+001  9.9573274039766435E+000 -4.3286448626815605E-001
       H  2.8641265036956412E+001  9.9657294350736372E+000 -3.1024699030754183E-001
       O  2.7827568132370924E+001  9.9265659638989536E+000  1.6445482637501879E-001
       H  1.1518606784992288E+001 -2.0942780920629640E+000  2.5668076893890856E+001
       H  1.2629590847550297E+001 -2.1347425227970995E+000  2.4706499169526030E+001
       O  1.2324144793921342E+001 -2.7083314429031407E+000  2.5407211283308961E+001
       H -6.6341032275705194E+000  7.6262410683233277E+000 -2.9052531477435903E+000
       H -6.1847226662476036E+000  8.9663309644633529E+000 -2.4650159844114179E+000
       O -5.8082702419501668E+000  8.1226216059960361E+000 -2.8472029378091639E+000
       H  7.5624400082395704E+000  4.5584064525939327E+000  1.3198103181118652E+000
       H  7.3096809674650611E+000  5.8145227379401279E+000  8.4151889534656543E-001
       O  8.0161840359068108E+000  5.1863753191290360E+000  7.1810435267998129E-001
       H  1.7004597591332311E+000 -9.8688333691833918E-001  1.9751221333624669E+000
       H  2.0098065285010058E-001 -2.4942352108099755E-001  2.1817251180602759E+000
       O  7.6704774718219937E-001 -1.0238290949147897E+000  2.3979768730183904E+000
       H -3.1667315479176490E+000  2.2611134795657666E+001 -5.9768580411770547E+000
       H -2.3063293395286770E+000  2.2087526978741199E+001 -4.7026688820137252E+000
       O -3.1317655957406272E+000  2.2564820817867712E+001 -4.9859295434959137E+000
       H  2.3681361915911182E+001  2.4453008556046441E+001  1.2667831459223947E+001
       H  2.3809428721616957E+001  2.5385495870116312E+001  1.1400468191975399E+001
       O  2.3237857929852716E+001  2.4696654461622991E+001  1.1844874517094377E+001
       H  3.2295901824729167E+000 -1.9864941771459801E+001 -5.8735797708569111E+000
       H  2.3710820111773185E+000 -1.9091350266212494E+001 -6.9020216226695084E+000
       O  3.0325966415519532E+000 -1.9767311778810090E+001 -6.8376860114710682E+000
       H  8.6637423530899067E+000  2.5445193483993069E+000  1.2324026891273768E+001
       H  8.3840636640621593E+000  3.4527364214040284E+000  1.1107456409794306E+001
       O  8.0034530742094265E+000  2.8015493222996435E+000  1.1701875331093534E+001
       H  1.3592153849884349E+001  2.1067913286393598E+001 -1.8478782365784291E+001
       H  1.3383476657023916E+001  1.9696518840730075E+001 -1.8254893552697617E+001
       O  1.2849926659763151E+001  2.0577436188745434E+001 -1.8120074169763299E+001
       H  1.3613867185297607E+001 -9.1019769221906337E+000 -1.8314477481057210E+001
       H  1.4108405090262011E+001 -7.7046610407812013E+000 -1.8706755880891720E+001
       O  1.3257037633672818E+001 -8.2625957979088707E+000 -1.8495331097260934E+001
       H  1.3446151891322851E+001 -3.0139221641305296E+000  2.9091467969585015E+001
       H  1.3739010682089253E+001 -2.2599400376029379E+000  2.7817978286374185E+001
       O  1.4162211293601697E+001 -2.8327210630841431E+000  2.8457610192998271E+001
       H  2.2509529609769125E+001  6.0247800045603777E+000  1.7945742012592905E+001
       H  2.1128874759946608E+001  5.2447089609068955E+000  1.7542605273494740E+001
       O  2.1533019925596445E+001  6.1789195935807122E+000  1.7725010837530387E+001
       H  1.6379803446965518E+001  2.0745702907763533E+001  1.0444780799419625E+001
       H  1.4923838052045053E+001  2.1033350750473037E+001  1.0590361364053305E+001
       O  1.5739650877945451E+001  2.1050551643542750E+001  1.1125170145741061E+001
       H  3.0451927542351123E+000  1.9889394025582696E+000  4.2589518178886099E+000
       H  2.4071255015619260E+000  1.7670983696226596E+000  2.9019556245592950E+000
       O  3.3212066444499828E+000  1.7040835811025346E+000  3.3103514831647392E+000
       H  1.9686897044931069E+001  2.3761666544211760E+001 -6.6796097896788131E+000
       H  1.8256611527500223E+001  2.3842756590443027E+001 -6.1525151960819331E+000
       O  1.8971643650913109E+001  2.3236873111794967E+001 -6.3817607274334058E+000
       H  2.7473841057654553E+000  3.4778455588742830E+001  1.5844924922796741E+001
       H  3.6687666236319090E+000  3.4724027395562693E+001  1.7075486656788158E+001
       O  3.3610482616443176E+000  3.5363293415988728E+001  1.6432280185177774E+001
       H  1.3035670348521389E+001  1.5254731189121642E+000  1.2267075110338148E+001
       H  1.1908873152375863E+001  2.1989507875739118E+000  1.1616877438417212E+001
       O  1.2107674040592997E+001  1.6581592423606573E+000  1.2379197052160434E+001
       H  1.4128801402626557E+001  1.5539645932291522E+001 -1.6375159493412067E+001
       H  1.2913062074103076E+001  1.5085949591200718E+001 -1.7107256052224383E+001
       O  1.3308027514176192E+001  1.5902187152441037E+001 -1.6814613387979549E+001
       H -1.0662137750694914E+001  1.4601571881894289E+001  7.2846345166301143E+000
       H -9.0696198497111649E+000  1.4935938632694308E+001  7.0982685227193967E+000
       O -9.7413572384810649E+000  1.4715649636692492E+001  7.8131002875546161E+000
       H  9.7716685572390443E+000  3.6713635835803736E+001  1.3668466852669635E+001
       H  8.9091787788230707E+000  3.6305477833329554E+001  1.4892032514987630E+001
       O  9.5821905027458865E+000  3.5963109879748131E+001  1.4248072381265088E+001
       H  6.3699686600226348E+000  5.1395447559887906E+000  1.7923803335714705E+001
       H  5.8032754322330797E+000  5.6626391406037939E+000  1.6530540898500718E+001
       O  5.6476359008895844E+000  5.6093100168763970E+000  1.7560136058018699E+001
       H -1.6687283683184688E+000  2.0078450009312586E+001 -1.8104871052321045E+000
       H -4.9790944572500606E-001  1.9030168984570729E+001 -1.3727892147168022E+000
       O -9.9872294212923962E-001  1.9905118175377932E+001 -1.0986765547786133E+000
       H -5.8359650956199269E+000  1.8282997427273209E+001  2.2156216888452530E+001
       H -6.9897760175951040E+000  1.8740023669952514E+001  2.3032062380011457E+001
       O -6.1167463015695445E+000  1.8202400347198182E+001  2.2998551286822170E+001
       H  1.8607547076073089E+001 -4.0988612320709983E+000  6.7808158288856157E+000
       H  1.8592991222984789E+001 -2.5990442125218167E+000  6.9617331857594431E+000
       O  1.8693943057451083E+001 -3.2653718396446738E+000  6.2686863179116035E+000
       H -3.2390342509319908E+001  4.2231037889914216E+000  2.2128760842527427E+001
       H -3.2912290259405047E+001  2.9828491068955922E+000  2.1422609773159998E+001
       O -3.2607603112919371E+001  3.9134596552541279E+000  2.1270170989404107E+001
       H  9.7606222581841724E+000  9.8535315700452060E+000  1.1127834109757547E+001
       H  9.5704221371737095E+000  9.9618156754368670E+000  1.2762464430492814E+001
       O  9.4735324854894909E+000  1.0394499080383287E+001  1.1889487543363751E+001
       H  1.7531059738892658E+001 -1.7062468967881326E+001  2.2720953200420425E+001
       H  1.7279121565748799E+001 -1.6091240232383583E+001  2.3963238524125430E+001
       O  1.7696827663560889E+001 -1.6151186126736398E+001  2.3064585279710492E+001
       H -6.6756426595179663E-002  1.4760555950061928E+001 -5.2756461310481573E+000
       H -4.2348799239841478E-001  1.6076130835307744E+001 -4.6060246179083828E+000
       O -1.4146655905038188E-001  1.5684550872333309E+001 -5.4555226993421044E+000
       H  1.8843897664671861E+001  9.8336458028199392E+000  1.6925274886085923E+001
       H  1.9784029062158961E+001  1.0165785187238219E+001  1.5827833494490378E+001
       O  1.8856817536888006E+001  9.7079161791906738E+000  1.5966663509841823E+001
       H  2.9303993454986066E+000  1.0114105350015249E+001  2.5872209176968230E+001
       H  3.6024424295172937E+000  8.7716255404127903E+000  2.6176723321266689E+001
       O  2.8961434393017611E+000  9.1060901221164716E+000  2.5680385397485239E+001
       H  3.4954572843973146E+000 -7.5008978439482599E+000 -1.1676256291816780E+000
       H  2.5623037605243875E+000 -6.4450418381213801E+000 -1.6468056113383174E+000
       O  3.3229502286306847E+000 -6.9792598492391580E+000 -1.9872853792960388E+000
       H  2.9576283466476938E+000  8.3336654023310661E+000  1.6652161089041119E+001
       H  3.0826451604720764E+000  8.4236556396166193E+000  1.8089520407191781E+001
       O  3.7351332216119926E+000  8.5898587344730579E+000  1.7359888341621620E+001
       H  7.0067934183778897E+000  2.4353953880304676E+001  3.3173456871601211E+001
       H  6.2011355960032599E+000  2.2979926972929288E+001  3.2919435074376992E+001
       O  6.3405496775675720E+000  2.3756620787041594E+001  3.3554321253431105E+001
       H  8.7536125173517743E+000  3.2506165330700220E+001 -2.6599664321414327E+000
       H  9.7190858824304716E+000  3.3575775749441760E+001 -1.9714971661723293E+000
       O  9.1589685583541325E+000  3.2773108953590587E+001 -1.8055634037044441E+000
       H  5.9685821707097103E-002  9.6823181257594335E+000  1.1427399771884316E+001
       H -1.1060586209894058E-001  1.1005060189045619E+001  1.2301703675637274E+001
       O  1.3584186727999137E-001  1.0662108321459758E+001  1.1381613949944443E+001
       H  1.5287205391901015E+001  1.3660061624238379E+001 -2.0100515858472200E+001
       H  1.6649376025032019E+001  1.3066741968576620E+001 -1.9922554234931727E+001
       O  1.5816110669931939E+001  1.3128745788335427E+001 -1.9519223885179109E+001
       H  1.3827037363102338E+001 -1.3445539216768827E+000  1.5914651175978646E+001
       H  1.2341410857961018E+001 -1.7365259089248770E+000  1.6020237008602102E+001
       O  1.3202764746690383E+001 -1.7924708290979436E+000  1.6435351895685983E+001
       H  1.4860910053546707E+001  7.1732004559828564E+000  2.0588202617453575E+001
       H  1.5551392383064147E+001  8.2039700579473838E+000  2.1682789401820539E+001
       O  1.5294021747874558E+001  8.1302971437547491E+000  2.0714410311769392E+001
       H  2.9256726927902793E+001 -2.0227010003223107E+000  2.1862139588010336E+001
       H  2.8225873799026100E+001 -9.6680345593009098E-001  2.2308925519787888E+001
       O  2.8664356113529259E+001 -1.3173252763346479E+000  2.1569338182359147E+001
       H  2.0818421508920412E+001  1.4707230471740278E+001  1.7925507771837879E+001
       H  1.9547907868493073E+001  1.4175581583988304E+001  1.8577825157219220E+001
       O  2.0531590085216013E+001  1.4037258932513623E+001  1.8570282787895565E+001
       H  1.0763981222886057E+001  6.4913842987714636E+000 -5.2646314573798465E+000
       H  9.6915383461341804E+000  5.5434101047967284E+000 -4.6818614686574644E+000
       O  1.0493268614827684E+001  5.5501781433036372E+000 -5.2729868554821770E+000
       H -2.4444554281109592E+000  1.1989199134885999E+001 -4.3864342725530205E+000
       H -2.7768889195381226E+000  1.3104812138929177E+001 -5.4616300469019015E+000
       O -2.1886846168958245E+000  1.2309005276238709E+001 -5.2858090957792330E+000
       H  7.0391428737575286E+000  7.3361852512991348E+000  1.2454637668799812E+001
       H  8.3021893408640750E+000  6.3845310358877914E+000  1.2368678317594899E+001
       O  7.8908264028349340E+000  7.1613118334372556E+000  1.2871949719226155E+001
       H -1.7364562369795070E+001 -3.1552444263153987E+000  4.6219274323025417E+000
       H -1.6308642842917855E+001 -3.9151221233914053E+000  3.5348754938369402E+000
       O -1.6504409370172120E+001 -3.7757108727933768E+000  4.5117467978065537E+000
       H -4.7422401939924635E-001  7.4895453744721348E+000 -6.6065336412605316E+000
       H -9.3535471711767848E-001  7.3608820518660663E+000 -8.1841803955782471E+000
       O -4.3914082420216216E-001  7.9442059136021212E+000 -7.4933945485625442E+000
       H  1.3642119689491585E+001  8.8218465364155598E+000  7.9885511533180740E+000
       H  1.3797907636358438E+001  1.0307263140700872E+001  8.2067945584752202E+000
       O  1.4213446354725306E+001  9.5269780278135201E+000  7.7114349567273655E+000
       H  2.9401260100821629E+000  1.1189886659314652E+001  2.8699897160582064E+000
       H  1.6350219833899933E+000  1.0116193723951005E+001  3.3041507539602342E+000
       O  2.3743685928958898E+000  1.0350640722966251E+001  2.6318984373838932E+000
       H  1.1453868769143858E+001  1.5865346560043891E+001 -6.6742389658068317E+000
       H  1.1956839484058897E+001  1.4550927708005435E+001 -6.3560474240307734E+000
       O  1.2293339093963420E+001  1.5448685296757407E+001 -6.6886534782190843E+000
       H  1.5248766098786547E+001  1.9025330304199461E+001  1.2871912949027076E+001
       H  1.5929835671539609E+001  1.8205112306507193E+001  1.4009666864847627E+001
       O  1.5063621205983905E+001  1.8691153998011146E+001  1.3741654599331545E+001
       H  6.3027688664811885E+000 -4.8802400404627040E+000 -1.2378137370291716E+001
       H  6.2236761894340633E+000 -4.2334037345817732E+000 -1.0977567937905848E+001
       O  6.6378654427744408E+000 -4.0892782842378583E+000 -1.1872097929966438E+001
       H  4.8339686632147636E+000  1.2114308657103065E+001  6.8367530877977618E+000
       H  5.8289674196710157E+000  1.1174032319392730E+001  6.3753566209101651E+000
       O  5.1161392029106727E+000  1.1682779327681942E+001  6.0032044937822286E+000
       H  1.2063163593503045E+001  6.8566724843504003E+000  1.0170176694343976E+001
       H  1.1476631700115238E+001  8.0193455093378958E+000  9.4806142767292112E+000
       O  1.2048100703345494E+001  7.8567040530066228E+000  1.0196119025565926E+001
       H  1.6934915595474886E+000  1.7040956541764074E+000 -7.5967551123108006E+000
       H  6.4785801566579737E-001  2.2551881994736118E+000 -6.5499079075318649E+000
       O  1.1120851160115657E+000  1.3261123017254257E+000 -6.7674558573193542E+000
       H  2.1665981316243919E+000  1.4082048830205215E+001  6.6969199129758001E+000
       H  2.8650782695135821E+000  1.3267085017542328E+001  7.9554373622902519E+000
       O  2.1977843278353402E+000  1.4012811369423778E+001  7.7053917101489526E+000
       H -7.6232550252545233E+000 -6.4201494453185939E+000  1.7480724060068066E+001
       H -6.3264414919499146E+000 -7.0867663418620106E+000  1.7592205779210445E+001
       O -6.7054529511347276E+000 -6.2079156682178196E+000  1.7497479467014905E+001
       H  1.8526254672100304E+001  2.5400563897518467E+000  1.5846233355670536E+001
       H  1.8645222366025163E+001  1.2335166385602361E+000  1.5154619004058556E+001
       O  1.8290034542669005E+001  2.0985755783223072E+000  1.4995177052625870E+001
       H  1.5884173619114433E+001 -3.6167438709886190E+000  2.8699142530027764E+001
       H  1.7045168626644188E+001 -4.8695258026226185E+000  2.8562277175244198E+001
       O  1.6444995287769061E+001 -4.2605161638042732E+000  2.9163548528499661E+001
       H  1.8523583312450697E+001  1.2941641068556629E+000  1.9412197744769603E+001
       H  1.9116448377802342E+001  2.3905253121761474E+000  2.0403985295709507E+001
       O  1.8990880314767200E+001  1.4565602620480069E+000  2.0228589697666944E+001
       H  1.0233859252744981E+001  2.7087377582092862E+000 -4.4317209987919206E+000
       H  1.0620850364156160E+001  1.7800357163974436E+000 -5.6216256334212549E+000
       O  9.8486757333580943E+000  2.0754428118410839E+000 -5.0855562661048790E+000
       H  1.1636025084401895E+001 -6.3614445575411596E+000 -4.9159663946140570E+000
       H  1.0560852140919001E+001 -5.4350375628540206E+000 -4.2925134832225869E+000
       O  1.0637925463427292E+001 -6.3188668126190626E+000 -4.7045140642950152E+000
       H  3.3127967599000840E+001  1.5072891928147504E+001  1.2896495282776788E+001
       H  3.4657657927856775E+001  1.5559365344568620E+001  1.2969469564877906E+001
       O  3.4045221315080390E+001  1.4946067067610270E+001  1.3316129695195716E+001
       H  1.9636180666075248E+001  9.1547882172645760E+000  8.8425829336169706E+000
       H  1.9350515591942088E+001  8.9197776436783709E+000  7.3253520080734793E+000
       O  1.8946158047918484E+001  8.9368616840715571E+000  8.1548950188389639E+000
       H  8.1727819659239191E+000 -7.3733138133157325E+000  7.8057843405593692E+000
       H  9.2292705760964839E+000 -6.4284637337553052E+000  8.1750690030491224E+000
       O  9.0011518175178473E+000 -7.3590125915873141E+000  8.3328367056485302E+000
       H -5.3666275261866492E+000  6.0168791237445474E+000  4.4338622573585091E+000
       H -5.1956313098642397E+000  6.9874207538253099E+000  5.6047871040530817E+000
       O -5.1626971579313974E+000  6.9060515291430713E+000  4.6279682238098374E+000
       H  1.3658114658173455E+001 -1.4915150277724770E+001 -2.0786907572576476E+000
       H  1.3347283983977057E+001 -1.3371614928403389E+001 -2.4736007208009125E+000