 # Version information for this restart file 
 # current date 2025-03-29 21:57:49.135
 # current working dir /ccc/scratch/cont003/gen2309/sicilana/NPT/128_H2O_4_NaCl_10_wt_673K_1000bar/BATCH_10_MD_T_673_P_1000_steps_1000_dt_0.5_NH2O_128_NaCl_4_abc_17.19_17.19_17.19_wt_9.20
 # Program compiled at                                       2024-10-31 15:04:21
 # Program compiled on                                                 topaze131
 # Program compiled for                                                   x86_64
 # Source code revision number                                                  
 &GLOBAL
   PRINT_LEVEL LOW
   PROJECT_NAME "brines"
   RUN_TYPE MD
   FLUSH_SHOULD_FLUSH T
 &END GLOBAL
 &MOTION
   &MD
     ENSEMBLE NPT_I
     STEPS 1000
     TIMESTEP  4.9999999999999994E-001
     STEP_START_VAL 26000
     TIME_START_VAL  1.3000000000006883E+004
     ECONS_START_VAL -2.4590398713531335E+003
     TEMPERATURE  6.7300000000000011E+002
     &BAROSTAT
       PRESSURE  1.0000000000000000E+003
       TIMECON  9.9999999999999986E+001
       &VELOCITY
          -4.2971088353322452E-006
       &END VELOCITY
       &MASS
           4.2836593343398705E+007
       &END MASS
       &THERMOSTAT
         TYPE CSVR
         &CSVR
           TIMECON  4.8377686530095694E+001
           &THERMOSTAT_ENERGY
              -1.5575919721220739E-004
           &END THERMOSTAT_ENERGY
           &RNG_INIT
 Wiener process for Thermostat # 1        1 F T F  -1.8775754302233836E+00         988140406.0        3976969927.0        3725195270.0        3517222871.0        2465330196.0          43416632.0             12345.0             12345.0             12345.0             12345.0             12345.0             12345.0             12345.0             12345.0             12345.0             12345.0             12345.0             12345.0
           &END RNG_INIT
         &END CSVR
       &END THERMOSTAT
     &END BAROSTAT
     &THERMOSTAT
       TYPE CSVR
       &CSVR
         TIMECON  4.9999999999999994E+002
         &THERMOSTAT_ENERGY
            -8.0161390544146216E-001
         &END THERMOSTAT_ENERGY
         &RNG_INIT
 Wiener process for Thermostat # 1        1 F T F   1.2105052254252306E+00        1577777781.0         595368495.0         296512102.0        2950028379.0        1739405149.0         885847466.0             12345.0             12345.0             12345.0             12345.0             12345.0             12345.0             12345.0             12345.0             12345.0             12345.0             12345.0             12345.0
         &END RNG_INIT
       &END CSVR
     &END THERMOSTAT
     &AVERAGES T
       &RESTART_AVERAGES
         ITIMES_START 1
         AVECPU  2.2948396232799109E+001
         AVEHUGONIOT  0.0000000000000000E+000
         AVETEMP_BARO  3.0090033672485447E+002
         AVEPOT -2.4597141206895431E+003
         AVEKIN  1.2232328000008117E+000
         AVETEMP  6.5859489637440333E+002
         AVEKIN_QM  0.0000000000000000E+000
         AVETEMP_QM  0.0000000000000000E+000
         AVEVOL  3.8505838145843838E+004
         AVECELL_A  3.3693038121517425E+001
         AVECELL_B  3.3693038121517425E+001
         AVECELL_C  3.3693038121517425E+001
         AVEALPHA  9.0000000000000000E+001
         AVEBETA  9.0000000000000000E+001
         AVEGAMMA  9.0000000000000000E+001
         AVE_ECONS -1.2821120280777853E+002
         AVE_PRESS  3.8288577601476709E+002
         AVE_PXX  3.5791738956555787E+002
       &END RESTART_AVERAGES
     &END AVERAGES
   &END MD
   &PRINT
     &TRAJECTORY SILENT
       FILENAME =brines-1.xyz
       &EACH
         MD 1
       &END EACH
     &END TRAJECTORY
     &CELL SILENT
       FILENAME =brines-1.cell_xyz
       &EACH
         MD 1
       &END EACH
     &END CELL
     &VELOCITIES SILENT
       FILENAME =brines-1.vel
       &EACH
         MD 1
       &END EACH
     &END VELOCITIES
     &FORCES SILENT
       FILENAME =brines-1.force
       &EACH
         MD 1
       &END EACH
     &END FORCES
     &STRESS SILENT
       FILENAME =brines-1.stress
       &EACH
         MD 1
       &END EACH
     &END STRESS
     &RESTART SILENT
       FILENAME =brines-1.restart
       &EACH
         MD 1
       &END EACH
     &END RESTART
     &RESTART_HISTORY SILENT
       &EACH
         MD 50
       &END EACH
     &END RESTART_HISTORY
   &END PRINT
 &END MOTION
 &FORCE_EVAL
   METHOD QS
   STRESS_TENSOR ANALYTICAL
   &DFT
     BASIS_SET_FILE_NAME /ccc/work/cont003/gen2309/sicilana/DATA_CP2K/GTH_BASIS_SETS
     POTENTIAL_FILE_NAME /ccc/work/cont003/gen2309/sicilana/DATA_CP2K/GTH_POTENTIALS
     &SCF
       MAX_SCF 50
       EPS_SCF  9.9999999999999995E-008
       &OT T
         MINIMIZER DIIS
         PRECONDITIONER FULL_SINGLE_INVERSE
       &END OT
       &OUTER_SCF T
         EPS_SCF  9.9999999999999995E-008
         MAX_SCF 50
       &END OUTER_SCF
     &END SCF
     &QS
       EPS_DEFAULT  1.0000000000000000E-014
       EPSFIT  1.0000000000000000E-004
       EPSISO  9.9999999999999998E-013
       EPSRHO0  9.9999999999999995E-007
       QUADRATURE GC_LOG
       EXTRAPOLATION ASPC
       METHOD GAPW
     &END QS
     &MGRID
       NGRIDS 4
       CUTOFF  5.0000000000000000E+002
       REL_CUTOFF  6.0000000000000000E+001
     &END MGRID
     &XC
       DENSITY_CUTOFF  1.0000000000000000E-010
       GRADIENT_CUTOFF  1.0000000000000000E-010
       TAU_CUTOFF  1.0000000000000000E-010
       &XC_FUNCTIONAL NO_SHORTCUT
         &PBE T
           PARAMETRIZATION REVPBE
         &END PBE
       &END XC_FUNCTIONAL
       &VDW_POTENTIAL
         POTENTIAL_TYPE PAIR_POTENTIAL
         &PAIR_POTENTIAL
           TYPE DFTD3
           PARAMETER_FILE_NAME /ccc/work/cont003/gen2309/sicilana/DATA_CP2K/dftd3.dat
           REFERENCE_FUNCTIONAL "PBE"
           CALCULATE_C9_TERM T
           REFERENCE_C9_TERM T
           VERBOSE_OUTPUT T
           D3_EXCLUDE_KIND 3
         &END PAIR_POTENTIAL
       &END VDW_POTENTIAL
     &END XC
     &REAL_TIME_PROPAGATION
       INITIAL_WFN RT_RESTART
     &END REAL_TIME_PROPAGATION
     &PRINT
       &MO_CUBES SILENT
         WRITE_CUBE F
         NLUMO 10
         NHOMO 2
         &EACH
           MD 200
         &END EACH
       &END MO_CUBES
     &END PRINT
   &END DFT
   &SUBSYS
     &CELL
       A  1.9546103658992532E+001  0.0000000000000000E+000  0.0000000000000000E+000
       B  0.0000000000000000E+000  1.9546103658992532E+001  0.0000000000000000E+000
       C  0.0000000000000000E+000  0.0000000000000000E+000  1.9546103658992532E+001
       MULTIPLE_UNIT_CELL 1 1 1
     &END CELL
     &COORD
       H  1.0063047209649731E+001  2.3874238385451783E+001  9.6635404632456245E-001
       H  8.9598762602197830E+000  2.3930864952799521E+001  2.0419078121617655E+000
       O  9.8548219623954108E+000  2.3687446523715259E+001  1.8753197374488015E+000
       H  9.2503785923850756E+000 -8.3699400916212134E+000  2.7581004937237021E+000
       H  7.7293198260618503E+000 -8.9226344415617316E+000  3.0910028062751502E+000
       O  8.3216994753525633E+000 -8.1394223453146353E+000  2.8223885506853659E+000
       H -1.0325369809439119E+001  4.9054994860437283E+001  4.9537113065144432E+001
       H -1.0136857619941477E+001  4.9809986300869433E+001  4.8276037663050552E+001
       O -1.0346789746811039E+001  4.8897438552416993E+001  4.8616567621685952E+001
       H  9.3584820688993737E+000  2.3660507065245305E+001  2.6628584239062540E+001
       H  9.8533667123130044E+000  2.3688928213233417E+001  2.5198878347438956E+001
       O  9.0916492320727489E+000  2.3911225441120092E+001  2.5740789787079649E+001
       H -9.3705063754111571E+000  5.0544148906237147E+000  1.0174001762137683E+001
       H -9.3667521411099823E+000  6.3793609868510517E+000  9.4110161046491605E+000
       O -8.9114111201012562E+000  5.8578311982240994E+000  1.0021378461514326E+001
       H  3.4375693043840791E+001  2.9138047283861820E+001 -6.2797848352498633E+000
       H  3.3551540606408047E+001  2.9619483242368801E+001 -7.3837763330360771E+000
       O  3.4305500601444486E+001  2.9909525690119782E+001 -6.8654802131679213E+000
       H -4.7210614877032073E+000  5.1905617757067724E+000  8.5334648134176856E+000
       H -5.7220240029610778E+000  5.8498432814873693E+000  9.4476099879103987E+000
       O -5.4580612531800448E+000  4.9225364449883404E+000  9.0883283372080559E+000
       H  2.6415685696621086E+001  8.8744672210258801E-001  2.6741520008016317E-001
       H  2.6012657884379173E+001  2.2115169582300203E+000 -5.4678211699121870E-001
       O  2.5885788805193322E+001  1.2483055103305798E+000 -4.1682540390965489E-001
       H  2.2019437259026351E+001  1.3873732566577194E+001  1.5497386330559982E+001
       H  2.2531753055314525E+001  1.3922268561204891E+001  1.3974418121675065E+001
       O  2.2567846006097515E+001  1.4380943309810755E+001  1.4842061429636084E+001
       H  2.4871371879048741E+001 -1.2485725521119233E+000  2.3103484238238330E+001
       H  2.4935278080884370E+001 -1.5721912256063915E+000  2.1724563110438595E+001
       O  2.4470806633793114E+001 -9.3179848665632958E-001  2.2201402290951766E+001
       H  6.7017113897485805E+000 -5.0524550437789517E-001 -9.9874874299652703E+000
       H  5.7155315875284067E+000 -2.3836818809521271E-001 -8.8098819611980304E+000
       O  6.3378336722038151E+000  1.7314928265125115E-001 -9.4522694451337497E+000
       H  1.2385348952001285E+001  2.8795649370121690E+000  2.2615888141163659E+001
       H  1.1518020227518720E+001  4.0668479007231477E+000  2.2776182598107802E+001
       O  1.2367685469207833E+001  3.7013479322685297E+000  2.3108168215578910E+001
       H  1.7403553308114780E+001  1.4510114003257025E+001  5.6977940429988374E+000
       H  1.7953935805351897E+001  1.5634281885823237E+001  4.7622622835115092E+000
       O  1.7205826133905003E+001  1.5051168397847329E+001  4.9253100225910131E+000
       H  5.8505524267815368E+000 -1.0889673581300741E+001 -8.8580813787097512E-001
       H  6.8341470743142132E+000 -1.1455985351084509E+001 -1.8187985754109786E+000
       O  6.5078868275308022E+000 -1.0583119541786751E+001 -1.5760722108623806E+000
       H  3.1027799380404804E+001  3.5692004423218293E+001  3.4018714489592522E-001
       H  3.1689884892820295E+001  3.5675463799879928E+001 -1.1215002832421261E+000
       O  3.0853200354550474E+001  3.5943998839177127E+001 -6.2046238108500706E-001
       H  1.4282970270335715E+001  2.2436086237288828E+000 -1.0289423683582275E+001
       H  1.3307108401321656E+001  3.3355568242807130E+000 -1.0555946897899222E+001
       O  1.3334025769180650E+001  2.3445664205346404E+000 -1.0453401570724449E+001
       H  2.0887771286007670E+001  1.8025714752823037E+000  5.9295592761212159E+000
       H  2.0495026683432251E+001  5.8569808395055523E-001  6.8416679392309483E+000
       O  2.1239636363435409E+001  1.1490260297529251E+000  6.5832474525484326E+000
       H  9.9042407547520543E+000 -2.3993636047271840E+000  1.8195377831219751E+001
       H  8.9373562820547114E+000 -1.3088889863519275E+000  1.8722589160675696E+001
       O  9.0098927133805926E+000 -2.0530779856228345E+000  1.8097194945161345E+001
       H  4.6353925921701453E+000  1.8408151731085209E+001  7.6105384524461890E+000
       H  5.3934057376038869E+000  1.7265321564988675E+001  7.2876624805882804E+000
       O  4.5249022342609599E+000  1.7480068837649348E+001  7.6891025174410252E+000
       H  2.1405032943820373E+001  2.6309885127529082E+001  4.1321069593573849E+000
       H  2.0920755096628032E+001  2.7189766760675973E+001  2.8982151610306062E+000
       O  2.1241424892695164E+001  2.6370772875933522E+001  3.1606037076387148E+000
       H  1.7268438689120654E+001  1.0453335742888815E+001  2.0639597749895973E+001
       H  1.7387535805339351E+001  1.2004207785821087E+001  2.0701703533032280E+001
       O  1.7481190362305661E+001  1.1205938631178411E+001  2.1224194800368998E+001
       H  9.7854301661794238E+000 -1.3279518612878775E+001  1.7921940839941993E+001
       H  1.1178078039195471E+001 -1.2588675235619972E+001  1.8029033989229323E+001
       O  1.0233929533049430E+001 -1.2469487312475614E+001  1.7955022386766746E+001
       H  2.9426978002927672E+001  1.3657331759282675E+001  2.4483874933683449E+001
       H  3.0485462437576153E+001  1.4350954270260489E+001  2.3588023451305872E+001
       O  2.9603747749252793E+001  1.4511797707960856E+001  2.4145466254309479E+001
       H -1.6974500415640247E+001  7.4662571251897463E+000  1.4572604737219324E+001
       H -1.7659644556297486E+001  8.7766041411920774E+000  1.4438160520968662E+001
       O -1.7166986925946627E+001  8.2810812371177356E+000  1.5081323096240979E+001
       H  1.5345071221291853E+000  6.0394614148917061E+000  7.6476204150806772E+000
       H  1.3010763784547958E+000  5.2827583746533966E+000  6.4374564767298441E+000
       O  1.4962767527069978E+000  6.2179785209990666E+000  6.6834305673031427E+000
       H -8.9697042390398156E+000 -1.6486829083911957E+001  1.7051552522257488E+001
       H -8.0036097577037015E+000 -1.5462778075644522E+001  1.7546867677816156E+001
       O -8.6545050644605830E+000 -1.6141205537837525E+001  1.7898709397403305E+001
       H  2.7745943589221710E+001  1.0241921366453951E+001 -7.3254883400553916E-001
       H  2.8473389640141551E+001  1.1526163268800095E+001 -1.9744978334725599E-001
       O  2.8648453972917373E+001  1.0680015566439735E+001 -6.5368625548210491E-001
       H  1.2829342939913511E+001 -2.8941082189646448E+000  2.5953144998835160E+001
       H  1.3527015151109397E+001 -3.8878358393154437E+000  2.6830421117310909E+001
       O  1.2670150893798017E+001 -3.5152027992483470E+000  2.6741084012202641E+001
       H -6.6667996216957492E+000  8.7489839029343219E+000 -2.9285853138229752E+000
       H -7.0740876727529338E+000  9.3311656216534402E+000 -1.6252323113209426E+000
       O -6.2613469933580506E+000  9.0858488481339510E+000 -2.1394023934696964E+000
       H  6.1086746308416995E+000  5.4542934564091468E+000  1.2698238299069227E+000
       H  7.1812035290506202E+000  5.7631126601648930E+000  3.9891231211199357E-001
       O  6.5128511457854268E+000  5.0947348726459838E+000  4.3728501145431509E-001
       H  1.8839422133056030E+000 -1.7665382942120109E+000  3.5397033148165544E+000
       H  1.0932433827420664E+000 -6.0761268177139394E-001  2.7325067032214219E+000
       O  1.3095662135115300E+000 -1.5298580528564116E+000  2.8311303612136358E+000
       H -3.5555780190938839E+000  2.1828206466380170E+001 -5.0863469918745317E+000
       H -2.5378650276555086E+000  2.2761106763582674E+001 -4.4095820684309457E+000
       O -3.4068401923153413E+000  2.2688161324557601E+001 -4.6184432962251254E+000
       H  2.3898540756863245E+001  2.7088853707509017E+001  1.1247071657730606E+001
       H  2.2700999715118709E+001  2.6229435125743759E+001  1.1282764808321348E+001
       O  2.3281985530206025E+001  2.6778034292864358E+001  1.1839749560917713E+001
       H  2.5630387641311598E+000 -2.1508278024846163E+001 -6.9033109989441455E+000
       H  1.9405143717973514E+000 -2.0044223705349420E+001 -7.2910344722410585E+000
       O  2.3193064436845758E+000 -2.0589362244472543E+001 -6.4980498679924352E+000
       H  8.0233059251376062E+000  3.9625253730315659E+000  1.0981169112818147E+001
       H  9.0499430865788302E+000  3.0076042539559511E+000  1.1770668714915512E+001
       O  8.9647215230182358E+000  3.8626393599530582E+000  1.1212893026535481E+001
       H  1.1973444210028786E+001  2.0569929025485443E+001 -1.8358182796654191E+001
       H  1.1931390061202741E+001  2.1123446732174948E+001 -1.9574570254887774E+001
       O  1.2644121421134649E+001  2.0671099315706520E+001 -1.9012961090472558E+001
       H  1.4548276519788239E+001 -8.5439929998581814E+000 -1.6965907677207159E+001
       H  1.5526739322586437E+001 -7.4775407516053924E+000 -1.7382774635681738E+001
       O  1.4562029693467752E+001 -7.7944483812832210E+000 -1.7544406792177377E+001
       H  1.4266492161050198E+001 -2.9454083388210366E+000  3.0283331606620422E+001
       H  1.3333708509667446E+001 -2.8156783819407449E+000  2.9061599464288360E+001
       O  1.4199927534205688E+001 -3.1300130743364103E+000  2.9331985630391841E+001
       H  2.3051212390428717E+001  5.8858801383460211E+000  1.6701277999071426E+001
       H  2.2372928590421964E+001  5.4352036201317233E+000  1.8083421995693413E+001
       O  2.2300039700101706E+001  5.4509357501500775E+000  1.7102984181763709E+001
       H  1.6006165183279808E+001  2.2719311828652941E+001  1.2614171284407266E+001
       H  1.5342681954250242E+001  2.2897082259609565E+001  1.1233996271837462E+001
       O  1.5922985173365374E+001  2.2309763341788351E+001  1.1729381553536621E+001
       H  2.6534835996867940E+000  3.1652493676019691E+000  3.2206594398870263E+000
       H  3.6311055581614573E+000  2.3552235465009499E+000  4.0850192287472069E+000
       O  3.3357925775025481E+000  3.2616556421119913E+000  3.9232203678011235E+000
       H  1.8099651655484156E+001  2.3301777010482581E+001 -7.4571149832102241E+000
       H  1.9094157934418512E+001  2.2827934157143929E+001 -6.3313905495182778E+000
       O  1.9056039653091830E+001  2.3077500745635209E+001 -7.3142559408241663E+000
       H  2.8045957808813360E+000  3.6032466369401305E+001  1.5465541031161690E+001
       H  3.9760022007235718E+000  3.5548777504228525E+001  1.6211798409724476E+001
       O  3.3372799414431928E+000  3.6390197995598811E+001  1.6128171668434181E+001
       H  1.3425300059980026E+001  1.3161949940725464E+000  1.1595272465422095E+001
       H  1.2353737876067820E+001  2.2316305756999770E+000  1.1423843952745486E+001
       O  1.2599757795903310E+001  1.5063489628557991E+000  1.2022361974896766E+001
       H  1.3522907894532390E+001  1.7767753269001268E+001 -1.8540768932880454E+001
       H  1.3546353415419645E+001  1.7435203731978643E+001 -1.7075718876346549E+001
       O  1.3483830585395049E+001  1.6996625016389789E+001 -1.7919503493334073E+001
       H -9.4876736111414903E+000  1.5514484776553610E+001  6.7554310977843492E+000
       H -8.6716734539554352E+000  1.5793125523826754E+001  8.0304636594039973E+000
       O -9.5007513627301652E+000  1.5369331128010080E+001  7.6921567911152602E+000
       H  1.0148889883395892E+001  3.7148091157346940E+001  1.4815027126132382E+001
       H  1.0224604639775668E+001  3.6483138704270907E+001  1.6266967968715878E+001
       O  1.0673039138521487E+001  3.6605978782019740E+001  1.5412279655492013E+001
       H  5.2969350653394596E+000  5.5373146591026217E+000  1.7399412674341455E+001
       H  6.0506518947833525E+000  5.2111940480888004E+000  1.6178614206557377E+001
       O  5.5595172463146341E+000  5.9935155490255116E+000  1.6563516727685158E+001
       H -1.4220831574449173E+000  2.1170137351089938E+001 -1.1587429208999978E+000
       H -1.5012229410434701E+000  1.9603562132482690E+001 -1.1025461751244017E+000
       O -1.5023434659373556E+000  2.0385689653980840E+001 -5.2638399698508231E-001
       H -6.5504292047511630E+000  1.9301111303665365E+001  2.4021161508152836E+001
       H -4.9728185169200723E+000  1.9192962439444063E+001  2.4050133657196199E+001
       O -5.8444614994786601E+000  1.8795963614231503E+001  2.3633008350208531E+001
       H  1.9859562749148697E+001 -3.8205973209508333E+000  6.4006114829421685E+000
       H  1.9153919335673002E+001 -3.0179611926417889E+000  7.5280938617208815E+000
       O  1.9246017013527450E+001 -3.0482983510377588E+000  6.5739977674812886E+000
       H -3.2848637748122734E+001  5.2118105562534689E+000  2.3353378135966292E+001
       H -3.4152967320681938E+001  4.5578040523768513E+000  2.2759561487393054E+001
       O -3.3542235329368964E+001  5.3391781079726748E+000  2.2717144237200255E+001
       H  9.7906769586681914E+000  9.4686622215997769E+000  1.3299386471054685E+001
       H  1.0392118409796394E+001  1.0948374505720937E+001  1.3114425559463131E+001
       O  1.0308479220123489E+001  1.0076845375051274E+001  1.2688340970672908E+001
       H  1.8126198964502635E+001 -1.7379345733374844E+001  2.3717487802964467E+001
       H  1.7538890078608922E+001 -1.7071287003413598E+001  2.5096765760959880E+001
       O  1.8349000129368946E+001 -1.7227397230610691E+001  2.4597082746440336E+001
       H -1.1523516409197687E+000  1.6655941686109649E+001 -5.0863861752365267E+000
       H -2.3617059310087357E-001  1.7710416949398173E+001 -5.6188057227653143E+000
       O -7.9000509890057691E-001  1.6977399010693851E+001 -5.8977090417672899E+000
       H  1.8634425233004805E+001  1.0739971644589012E+001  1.6952173833302577E+001
       H  1.9929927501926979E+001  1.0237290757311275E+001  1.6979328823522401E+001
       O  1.9288979099301415E+001  1.0584626766447581E+001  1.6355943294436965E+001
       H  2.9524712178908623E+000  9.6928241795410894E+000  2.6027170382356086E+001
       H  3.3666372243465705E+000  8.5894993654067786E+000  2.7089917295433267E+001
       O  2.5584410196783773E+000  9.0260314116599663E+000  2.6632584444696509E+001
       H  2.2874709239913096E+000 -7.2572198518285527E+000 -2.5239946461347049E+000
       H  2.9008514183583158E+000 -6.0943691264624453E+000 -1.5983237025439474E+000
       O  3.0293774362200270E+000 -7.0808628484993914E+000 -1.9073998358237307E+000
       H  3.2296534910619670E+000  1.0193181516411782E+001  1.8382455417170242E+001
       H  3.2741038115402934E+000  9.5908927338964816E+000  1.7139169541111603E+001
       O  2.6342415057790078E+000  9.6443511235110702E+000  1.7957473562578912E+001
       H  7.5462484408408059E+000  2.4984225425246922E+001  3.3599692539339948E+001
       H  6.1746342975914557E+000  2.4397503417083467E+001  3.4046612118786094E+001
       O  7.1928279681415592E+000  2.4220374024185887E+001  3.4124076327917784E+001
       H  8.3845099827717995E+000  3.3888247542870324E+001 -2.3816899354361842E+000
       H  9.8886327003736874E+000  3.3831570815961840E+001 -2.0586843159094244E+000
       O  9.1006725784190277E+000  3.3250766290895946E+001 -2.2786491070932180E+000
       H  2.6996880562511022E-001  1.0985042650392884E+001  1.1821451428019058E+001
       H -8.6609991466447245E-001  1.1674117421480354E+001  1.2697104457886994E+001
       O -3.3110921151267902E-001  1.1762774718014940E+001  1.1908043174171873E+001
       H  1.5507222268496482E+001  1.2343643067136155E+001 -1.9638303475432348E+001
       H  1.6612163395433647E+001  1.3025314553617067E+001 -2.0540831585096175E+001
       O  1.6080503032588080E+001  1.3123178473360554E+001 -1.9710069745049509E+001
       H  1.2805243977001950E+001 -8.5839994020323507E-001  1.7368361823515936E+001
       H  1.2532810103012482E+001 -1.8613080168462330E+000  1.6130373679121853E+001
       O  1.3239367934847786E+001 -1.3841605160146415E+000  1.6689147088168649E+001
       H  1.5738071436620247E+001  8.4188535998634499E+000  2.1230427033939868E+001
       H  1.5529642728009081E+001  7.0890667820780324E+000  2.2086881009286579E+001
       O  1.5699085821477309E+001  7.3962422177843559E+000  2.1171834404098636E+001
       H  2.9186953474738019E+001 -1.3422045079967373E+000  2.3152964916994925E+001
       H  3.0539523058228450E+001 -2.1986041119010951E+000  2.3120311392918445E+001
       O  3.0135295635713430E+001 -1.3393395069591354E+000  2.2785082937495485E+001
       H  2.2677814979503957E+001  1.5640412998483121E+001  1.8536929012444482E+001
       H  2.1304023635299373E+001  1.5711913576779192E+001  1.8085471259483029E+001
       O  2.1874172509038146E+001  1.5132514730486074E+001  1.8638551485687252E+001
       H  1.0665208205648460E+001  4.6691276211024171E+000 -6.2755241339865133E+000
       H  1.0857957945812249E+001  4.5582436154975010E+000 -4.7020348326607619E+000
       O  1.0655744797268669E+001  5.2111789838427853E+000 -5.4671567471681266E+000
       H -2.9111591277723021E+000  1.2269306453826767E+001 -6.1263200706063463E+000
       H -2.1616744306455957E+000  1.3685826834014918E+001 -5.9233232946326986E+000
       O -2.0320343524671074E+000  1.2645698401781155E+001 -5.8744006306461074E+000
       H  8.1428837739183244E+000  7.7445158060092556E+000  1.3131193922286997E+001
       H  8.8209725240195542E+000  6.5401512559446280E+000  1.2587571434447403E+001
       O  7.9394716820640117E+000  6.9047205039179058E+000  1.2762970163342624E+001
       H -1.5740928636070326E+001 -4.6268947938894209E+000  4.7141536606719550E+000
       H -1.6075495172480455E+001 -3.2570503883474777E+000  4.3026826436116359E+000
       O -1.6473168704651027E+001 -4.0082312016867006E+000  4.6307942943868303E+000
       H -3.8606246740089378E-001  7.4030183118178776E+000 -8.1142782504674233E+000
       H -4.2390200885144208E-001  8.6519714141662227E+000 -8.9885354882322712E+000
       O -1.9128652692328935E-001  8.3266811220038974E+000 -8.1592556902349997E+000
       H  1.3818147289361161E+001  8.8378380537114190E+000  8.2737421312575119E+000
       H  1.3852703428235483E+001  1.0303434104052595E+001  8.4349776005593142E+000
       O  1.4318239542496995E+001  9.6258503952097083E+000  7.9178241953850543E+000
       H  2.9452628358866288E+000  1.1487708283071891E+001  1.4114281155648627E+000
       H  2.4117399196437903E+000  1.1729496814564719E+001  3.0735048507910214E+000
       O  3.1765767259502811E+000  1.1498618058618954E+001  2.4196920506028388E+000
       H  1.2663492845887269E+001  1.5886255315685286E+001 -7.0833805605488047E+000
       H  1.3655955725553886E+001  1.4875107481619436E+001 -7.0655118540513779E+000
       O  1.3648436975156230E+001  1.5827530803767422E+001 -6.9637050072913382E+000
       H  1.5884701398830602E+001  1.9738311516791395E+001  1.3761493912455355E+001
       H  1.4283056458128096E+001  1.9648174685297882E+001  1.3953545200726966E+001
       O  1.5091265496017897E+001  2.0269878906459361E+001  1.3805886842123071E+001
       H  5.5670976816202353E+000 -5.5317686863257718E+000 -1.2930170213397883E+001
       H  4.7690832038955575E+000 -4.8057752384233234E+000 -1.1874650366452741E+001
       O  5.4042046042003582E+000 -4.6659462863472561E+000 -1.2577058311709322E+001
       H  6.6714579640842695E+000  1.1401358673268071E+001  6.0435700738665954E+000
       H  6.3115515084900862E+000  1.2154099374501326E+001  4.7331365740026294E+000
       O  6.6546119727414164E+000  1.2281800502112551E+001  5.6210883425292311E+000
       H  1.1905405028862074E+001  7.8655757728627629E+000  9.8598730874590661E+000
       H  1.1887668322483467E+001  9.2298957436176288E+000  1.0435901957244992E+001
       O  1.2429556634150487E+001  8.6572154754000064E+000  9.8757026354994402E+000
       H  6.7529571667364507E-001  1.3330059620116586E+000 -9.2312642260537601E+000
       H  1.6698231008775952E-001  1.9593133358101191E+000 -8.0271721158948086E+000
       O  4.7625894594264728E-001  9.9876813039604961E-001 -8.3051211748332623E+000
       H  1.8916870710281759E+000  1.4051797152253609E+001  6.4078877852464284E+000
       H  2.2013846518291338E+000  1.3657256307290021E+001  7.8988218605395124E+000
       O  1.6229882196124656E+000  1.4255417390581476E+001  7.3296622899365351E+000
       H -6.2455418387492578E+000 -6.3438835067993544E+000  1.8188944937900619E+001
       H -7.2081550092353464E+000 -6.9714480040078914E+000  1.7299030669837389E+001
       O -6.8948936194637005E+000 -6.0833865939825564E+000  1.7520224943480791E+001
       H  1.9632404264608542E+001  2.5768560756494470E+000  1.5222868957171769E+001
       H  1.9053776657995332E+001  1.2661196339312428E+000  1.5658686003039149E+001
       O  1.8986805461202895E+001  1.8992791162849967E+000  1.4899340136719129E+001
       H  1.7124401889199518E+001 -4.0000696569927792E+000  2.9103068012166180E+001
       H  1.8081092044960165E+001 -5.0796646652472841E+000  2.9816649644691516E+001
       O  1.7322478675147305E+001 -4.4729605090914344E+000  2.9904897831950457E+001
       H  1.9536219220171287E+001  1.0098325233125123E+000  2.0365464357193559E+001
       H  1.9977025025572189E+001  2.3312598028019034E+000  2.1026266946986482E+001
       O  2.0157712276917348E+001  1.3256627034611927E+000  2.1021087514206439E+001
       H  8.8868343180511644E+000  1.6342002036225638E+000 -5.1070830295646275E+000
       H  1.0393287207774963E+001  1.6098419601046261E+000 -4.9150304779550034E+000
       O  9.6531434720149250E+000  2.1793660794147587E+000 -5.1674860905959932E+000
       H  1.0813112019672609E+001 -5.9330718679011989E+000 -5.0584107479828706E+000
       H  9.4887610583695210E+000 -6.2043985638148067E+000 -4.2662574707514489E+000
       O  1.0060323838641056E+001 -6.6358689016985011E+000 -4.9584865652734704E+000
       H  3.5817668620893393E+001  1.5707664530955446E+001  1.3828928929305322E+001
       H  3.5790961167146385E+001  1.5037103146185201E+001  1.5314659867264194E+001
       O  3.6182689913538226E+001  1.5017636960313649E+001  1.4403490757099531E+001
       H  2.0805173286138512E+001  9.3466044948747165E+000  8.4800403051869786E+000
       H  1.9570711374487363E+001  8.5259411766460005E+000  7.9071636886108081E+000
       O  1.9790183808050230E+001  9.1949223794835717E+000  8.5518539868775232E+000
       H  8.0501655985123826E+000 -6.9880285583599022E+000  8.1304561200890291E+000
       H  9.5602139109491731E+000 -6.7297077308107340E+000  8.1823434906250050E+000
       O  8.9227008873291318E+000 -7.4338797368105611E+000  8.0804424134823520E+000
       H -4.8222693702815276E+000  5.2559927463896425E+000  4.4470705797556516E+000
       H -4.7395792282200038E+000  6.7138576109823873E+000  5.0489250396439287E+000
       O -4.3962918898334014E+000  6.0961889971636545E+000  4.3388643657297363E+000
       H  1.4019275141748192E+001 -1.4400547048553085E+001 -3.5866843841840086E+000
       H  1.3514256710058117E+001 -1.3341800429965634E+001 -2.3156352259329891E+000
       O  1.3395551047636518E+001 -1.3764847130758154E+001 -3.2350649744605411E+000
       H  2.2087815508262615E+001 -2.3220492523084681E+000  2.6035183466492834E-001
       H  2.2656762619349813E+001 -1.2864713015167226E+000  1.1835477344418450E+000